110
strain_lig_122 ligand at complex geometry  charge=0 uhf=0  from=58|CCCCCCn1c(-c2ccccc2)c(-c2ccccc2)c2cc3ccc4cc5c(-c6ccccc6)c(-c6ccccc6)n(CCCCCC)c(=O)c5nc4c3nc2c1=O|nitrate
C        -4.87248118       5.28192031       5.50833178
C        -4.90913043       3.90883900       4.84966046
C        -4.50807849       3.92554511       3.37433077
C        -3.07024946       4.35888068       3.09725705
C        -2.03737169       3.34396956       3.57914759
C        -0.62671969       3.86735790       3.30081540
N         0.38174932       2.84039494       3.53276811
C         1.18767550       2.81907975       4.64795068
C         1.03275276       3.92626713       5.62075202
C         0.20999393       3.76675281       6.72773904
C         0.06209154       4.80165734       7.63416295
C         0.73718382       5.99574502       7.44891504
C         1.56248076       6.15184303       6.34693364
C         1.71468642       5.12469438       5.43295389
C         2.11852639       1.83915764       4.87565875
C         2.99982859       1.90816901       6.07499936
C         4.12357281       2.72846174       6.07050542
C         4.95577158       2.78495594       7.17583655
C         4.67625801       2.02793906       8.30050800
C         3.55037564       1.22140162       8.31578141
C         2.71727155       1.15611148       7.21095127
C         2.26168669       0.77409517       3.93021247
C         3.16426325      -0.29724522       4.02645003
C         3.21703546      -1.24517161       3.00839875
C         4.11631391      -2.36398304       2.98274056
C         4.16517744      -3.21889589       1.93529941
C         3.30692846      -3.06816660       0.79418108
C         3.33288778      -3.88751699      -0.33264747
C         2.46434922      -3.62463309      -1.40640771
C         2.40497549      -4.34506365      -2.64225967
C         3.27527890      -5.52884018      -2.87279518
C         2.73525203      -6.80854216      -2.81344207
C         3.53912140      -7.91851184      -3.00817844
C         4.88847319      -7.76670599      -3.27801203
C         5.42773657      -6.49286609      -3.35518308
C         4.63126084      -5.37856758      -3.14736160
C         1.52240043      -3.94655725      -3.61566029
C         1.46752157      -4.66666788      -4.90646197
C         2.49844912      -4.52306629      -5.82829989
C         2.43668385      -5.18754209      -7.03978739
C         1.36178529      -6.00929013      -7.33371577
C         0.33899714      -6.15859314      -6.41095342
C         0.38430523      -5.48823601      -5.20186660
N         0.69338683      -2.85928494      -3.46821059
C        -0.13900396      -2.32127201      -4.53924432
C        -1.63414430      -2.56829283      -4.28183243
C        -2.49008610      -1.36646255      -4.68027494
C        -2.36666564      -0.97191109      -6.14867157
C        -3.24179357       0.22979374      -6.50942223
C        -2.83907084       1.51786367      -5.80001140
C         0.66724995      -2.12191688      -2.32720440
O        -0.02102658      -1.09131483      -2.21710176
C         1.56130629      -2.54316568      -1.25721419
N         1.50828571      -1.76540088      -0.17724577
C         2.36885579      -2.00172372       0.80806343
C         2.33760166      -1.07767478       1.90736446
N         1.48258187      -0.06634594       1.79566374
C         1.43913973       0.82867492       2.77680446
C         0.47476137       1.89936257       2.55797103
O        -0.20694150       1.94832933       1.51752815
H        -5.25217420       5.21911920       6.52485294
H        -5.49163121       5.98509060       4.95824892
H        -3.86125733       5.67724900       5.55196370
H        -5.92712209       3.52246562       4.91520879
H        -4.27292734       3.22238756       5.40934844
H        -5.17594636       4.60471354       2.84436802
H        -4.65647764       2.92946120       2.95597823
H        -2.87771950       5.32513381       3.56375203
H        -2.94199945       4.47977681       2.02013966
H        -2.18691794       2.40046851       3.04740683
H        -2.14889715       3.15977510       4.64788804
H        -0.40656727       4.73490967       3.92012524
H        -0.54965841       4.14558239       2.24574653
H        -0.31730421       2.83627936       6.87691501
H        -0.59486069       4.67449850       8.47859668
H         0.61556475       6.81242564       8.14643268
H         2.07335026       7.08929670       6.19998751
H         2.35350335       5.24225445       4.56877654
H         4.35449932       3.32893997       5.20210410
H         5.81955925       3.43132091       7.15761604
H         5.32323774       2.06461220       9.16535012
H         3.32451427       0.65048576       9.20283632
H         1.83532454       0.53069619       7.22800616
H         3.81955813      -0.38024806       4.88194997
H         4.77248013      -2.48831560       3.83152492
H         4.86313492      -4.04290390       1.92647598
H         4.02513648      -4.71549713      -0.38621369
H         1.68326454      -6.93922723      -2.60627790
H         3.10483455      -8.90427142      -2.95433855
H         5.52114509      -8.63009971      -3.43126360
H         6.47588660      -6.38146302      -3.58575325
H         5.05236088      -4.38441239      -3.21109953
H         3.33737672      -3.87925362      -5.60759721
H         3.22783028      -5.04820886      -7.75817293
H         1.30662900      -6.52235374      -8.28272794
H        -0.50025529      -6.79131138      -6.65015701
H        -0.40650808      -5.59859997      -4.47352569
H         0.18008884      -2.74303772      -5.49028428
H         0.05319997      -1.24351973      -4.53845068
H        -1.79035767      -2.73362802      -3.21290586
H        -1.94967001      -3.46645768      -4.81497891
H        -2.20479338      -0.53173167      -4.03919288
H        -3.53185696      -1.60584223      -4.46635133
H        -2.65878891      -1.82245733      -6.76843336
H        -1.33052925      -0.73262929      -6.39042490
H        -4.28233038       0.00036648      -6.27677882
H        -3.17484295       0.39314419      -7.58662055
H        -2.99035320       1.45590065      -4.72687490
H        -3.43529610       2.34873412      -6.16765094
H        -1.79336724       1.75179403      -5.98219932
