117
strain_lig_066 ligand at complex geometry  charge=0 uhf=0  from=63|CCCCCCCCN(CCCCCCCC)C(=O)C1CCC(C(=O)N(CCCCCCCC)CCCCCCCC)O1|nitrate
C        -4.20575004      -5.80864874       3.22999364
C        -4.34969923      -6.55210432       4.55454018
C        -4.36076425      -5.66639398       5.80480701
C        -5.62143200      -4.81513192       6.00521123
C        -5.61219375      -3.46886190       5.28024582
C        -4.60105470      -2.47589197       5.85120679
C        -4.57013679      -1.17783745       5.03918930
C        -4.16175962      -1.47584766       3.59518197
N        -3.72472986      -0.33614406       2.80835498
C        -4.70043901       0.73678047       2.60566092
C        -6.05142021       0.29751076       2.05039904
C        -5.94102386      -0.12369207       0.58351439
C        -6.38383797       0.95222417      -0.41157546
C        -5.61757492       2.28001346      -0.35103788
C        -6.22932693       3.35067448       0.55356139
C        -5.43440864       4.65052216       0.45324288
C        -6.01073784       5.75070641       1.33225025
C        -2.50507350      -0.21969817       2.28453851
O        -2.22882628       0.53621653       1.34251771
C        -1.35746228      -0.93909121       2.99184561
C        -1.07413677      -0.24851698       4.32630265
C         0.37057504      -0.65591274       4.54768777
C         0.96577209      -0.68161947       3.13462961
C         1.77523130       0.56143508       2.72844755
O         1.30706663       1.25654868       1.80172185
N         2.90818810       0.87654082       3.34602809
C         3.57305276       0.06418638       4.35233562
C         3.35366687       0.49782876       5.81211046
C         4.32053269       1.56519695       6.31948396
C         4.38367996       1.62113911       7.84726526
C         3.05223613       1.88874669       8.55343652
C         2.23863404       3.09844236       8.08214888
C         2.82703403       4.46499361       8.44750901
C         3.91753365       4.96533203       7.50736109
C         3.39175134       2.24354825       3.11594183
C         4.88526379       2.55668577       3.13942363
C         5.60326564       2.45686068       1.78978853
C         6.29839420       1.11992076       1.52706601
C         5.41273068       0.03975655       0.90898236
C         6.25732238      -1.04654910       0.23359044
C         7.18025297      -1.83495823       1.16401084
C         6.43272406      -2.62612283       2.22918919
O        -0.15710399      -0.77828027       2.24037794
H        -4.00299476      -6.51579293       2.42870296
H        -3.37888812      -5.09968542       3.27163359
H        -5.11813957      -5.27613751       2.97668851
H        -3.51124187      -7.24527486       4.64872978
H        -5.25978983      -7.15186775       4.53336205
H        -3.47322046      -5.03034520       5.80180665
H        -4.27292868      -6.33049884       6.66614857
H        -5.75829047      -4.62557146       7.07166282
H        -6.48387418      -5.39482900       5.67121151
H        -6.60532309      -3.02361839       5.35458968
H        -5.40505533      -3.63861660       4.22722066
H        -3.60373831      -2.92307892       5.86046603
H        -4.86855165      -2.25576524       6.88552576
H        -3.87061753      -0.47523017       5.49236649
H        -5.55617735      -0.71716419       5.05701166
H        -5.01176982      -1.91264053       3.06825579
H        -3.37824330      -2.22793582       3.61067690
H        -4.23468473       1.44805629       1.92480010
H        -4.83171115       1.20829078       3.58362343
H        -6.75008107       1.12732524       2.13486270
H        -6.46180376      -0.50372642       2.66327370
H        -6.56364603      -1.00277451       0.41330903
H        -4.90172597      -0.40075211       0.38533974
H        -7.44649442       1.15273977      -0.27541128
H        -6.26831957       0.53337867      -1.41402336
H        -5.58980782       2.70044136      -1.36003145
H        -4.58450313       2.10548177      -0.03756437
H        -6.23151933       3.03370594       1.59717343
H        -7.26355024       3.52881823       0.25297178
H        -5.42121061       4.99112729      -0.58463709
H        -4.40155208       4.44357336       0.75032402
H        -7.02645609       5.98798430       1.02743717
H        -5.41030953       6.65322174       1.25000382
H        -6.03110260       5.44249508       2.37506844
H        -1.51002003      -2.01725488       3.12634836
H        -1.72151471      -0.58820718       5.12964627
H        -1.17636803       0.83280649       4.20798828
H         0.40433553      -1.66313437       4.94673057
H         0.89335078       0.01776268       5.21260792
H         1.58739917      -1.57179079       2.98331045
H         4.64187736       0.08402861       4.13249697
H         3.24022195      -0.96475449       4.23247892
H         3.45508024      -0.38612319       6.44356848
H         2.34250670       0.87380116       5.94320946
H         4.04012485       2.54202057       5.92950697
H         5.32793271       1.34266120       5.96850360
H         5.11049098       2.38144922       8.13171967
H         4.76325632       0.66407546       8.21443256
H         3.25813982       2.02348539       9.61643495
H         2.42558085       0.99679453       8.46222683
H         1.25890077       3.02057357       8.56270878
H         2.06878403       3.05159905       7.00287768
H         3.20955142       4.42214367       9.46739646
H         2.01651068       5.19698360       8.43760397
H         4.82500431       4.37601838       7.58556971
H         4.16895640       5.99296485       7.75414842
H         3.57391399       4.94220354       6.47366594
H         2.89838774       2.84165609       3.88490817
H         3.00295535       2.55010743       2.14459255
H         5.42089004       1.96651890       3.87602851
H         4.95560762       3.59421958       3.47105907
H         6.37053750       3.23140068       1.77229240
H         4.89979107       2.67812959       0.98578888
H         6.73161436       0.76238897       2.46048269
H         7.12684772       1.29908552       0.84089923
H         4.76695671       0.50610831       0.15473019
H         4.75630753      -0.40878105       1.65699607
H         6.86735636      -0.57411538      -0.54128363
H         5.59706194      -1.76213174      -0.26108497
H         7.89041620      -1.16079254       1.63897582
H         7.75331096      -2.53212283       0.54949492
H         5.95821817      -1.96841564       2.95260094
H         7.12376400      -3.27292975       2.76121742
H         5.66509179      -3.24626290       1.77325545
