92
strain_lig_050 ligand at complex geometry  charge=0 uhf=0  from=66|CCCCCCCCN(C)C(=O)C(CCOCCCCCC)C(=O)N(C)CCCCCCCC|nitrate
C        -4.87341855      -5.59027920      -5.67224938
C        -3.72921590      -6.40416072      -5.08185834
C        -2.39439293      -5.66521634      -5.19163859
C        -1.23029184      -6.48033510      -4.61757288
C        -1.18449633      -6.46331112      -3.08463652
C        -0.16568569      -5.52379790      -2.43788248
C        -0.53742111      -4.03562315      -2.51721307
C         0.13199008      -3.23627841      -3.64754035
N         1.31722371      -2.43195419      -3.27701467
C         2.29056610      -2.23752845      -4.34255536
C         1.37198581      -1.74460083      -2.14643344
O         0.43279653      -1.71189771      -1.32156942
C         2.68857283      -1.06725543      -1.72358569
C         2.66387035       0.49559998      -1.73750730
C         2.76268066       1.29565911      -0.41528036
O         1.51926812       1.93041446      -0.05557764
C         1.76574173       2.98365461       0.91307041
C         0.84828516       4.20220946       0.77624762
C        -0.43256419       4.15265812       1.61380935
C        -0.95957946       5.55127706       1.95739251
C        -1.53673171       6.33494545       0.77549306
C        -3.02630515       6.08008128       0.55127055
C         2.85836751      -1.66375114      -0.31879231
O         2.10231005      -1.25633982       0.58021572
N         3.75818344      -2.63687988      -0.16027907
C         4.46957980      -3.26954291      -1.25960859
C         3.95186545      -3.27205548       1.14551090
C         4.26846928      -2.30556322       2.28997514
C         5.31404463      -1.22246102       1.99692753
C         6.78611988      -1.60726641       2.18408838
C         7.45184753      -2.43406602       1.08096395
C         7.54113021      -1.75621003      -0.29110527
C         8.43853736      -0.51873379      -0.32207360
C         8.50606988       0.08339960      -1.72136242
H        -5.80552428      -6.14590080      -5.61012121
H        -4.67365840      -5.36170364      -6.71732777
H        -4.99897647      -4.65324001      -5.13414619
H        -3.65792000      -7.35478350      -5.61242221
H        -3.94240693      -6.63315008      -4.03505514
H        -2.46994948      -4.70234246      -4.67913903
H        -2.20196340      -5.46074232      -6.24742994
H        -0.28021838      -6.12786166      -5.02455811
H        -1.35174989      -7.50965729      -4.95989095
H        -0.96730499      -7.46751119      -2.72505408
H        -2.17047427      -6.19521333      -2.70510587
H         0.82179288      -5.69223622      -2.86620869
H        -0.10953000      -5.79939019      -1.38128922
H        -0.31783775      -3.57486725      -1.55855002
H        -1.61621179      -3.94849260      -2.64687573
H        -0.59601281      -2.54545451      -4.08783508
H         0.45882182      -3.93421389      -4.42065121
H         1.82090837      -2.45911119      -5.29753402
H         3.15416871      -2.90135525      -4.22223345
H         2.63215936      -1.20604958      -4.39010733
H         3.48471378      -1.37979432      -2.38872158
H         1.78200875       0.86224850      -2.27140121
H         3.52661582       0.80572362      -2.33238758
H         3.50027891       2.09666854      -0.57212240
H         3.11379891       0.69713115       0.43766022
H         2.79538020       3.33162948       0.76405753
H         1.69616828       2.56033371       1.92234656
H         0.60603708       4.33027465      -0.27409125
H         1.43416016       5.07432507       1.07541390
H        -0.21488107       3.62891748       2.55150514
H        -1.18090897       3.57970457       1.06938782
H        -0.13930533       6.12053873       2.39409814
H        -1.73308321       5.45584856       2.72255134
H        -0.98613547       6.08872132      -0.13441245
H        -1.39190903       7.40258422       0.94750576
H        -3.24236304       5.01530277       0.44314153
H        -3.35749704       6.59497393      -0.35028805
H        -3.60801933       6.46938936       1.38817704
H         4.79233646      -2.55886217      -2.01431172
H         3.85399334      -4.03697054      -1.73180344
H         5.37464786      -3.73573439      -0.87948066
H         4.77105980      -3.97594049       1.03125971
H         3.05302933      -3.84547792       1.40001661
H         4.60607673      -2.91964090       3.12796468
H         3.33924233      -1.81848687       2.58407260
H         5.11492255      -0.41207693       2.70072204
H         5.15549861      -0.82444622       0.99424782
H         6.88639980      -2.14878596       3.12661170
H         7.35299129      -0.68503950       2.29639816
H         6.94010336      -3.39444235       0.98025199
H         8.46859466      -2.65596314       1.41242275
H         6.54508061      -1.47337185      -0.64082000
H         7.94141602      -2.48861728      -0.99830501
H         9.44337743      -0.79294077       0.00295112
H         8.05428984       0.23399561       0.36944650
H         8.88771071      -0.64296298      -2.43526397
H         9.16566877       0.94648652      -1.72885885
H         7.51885862       0.40500793      -2.05143730
