107
strain_lig_032 ligand at complex geometry  charge=0 uhf=0  from=59|CCCCCCCCCCCCN(CCC)C(=O)COCC(=O)N(CCC)CCCCCCCCCCCC|water
C         3.46144284       6.65343010       1.39379000
C         3.02662592       7.53160089       2.56281975
C         3.25086348       6.84122575       3.90683796
C         2.83732772       7.68007569       5.11945006
C         1.38336905       8.15607714       5.11740742
C         0.37124627       7.01157061       5.12710288
C        -1.04889414       7.45728461       4.78102951
C        -1.23946350       7.85580950       3.31715313
C        -1.09426597       6.69099842       2.33745966
C        -1.28345582       7.16623927       0.89743275
C        -1.59688817       6.04174722      -0.09182386
C        -0.33963995       5.27582720      -0.51384287
N        -0.61815268       3.98083860      -1.12532308
C        -0.52474905       3.84371999      -2.58002376
C        -1.61294019       4.54706929      -3.38889276
C        -1.40871743       4.30557782      -4.88338224
C        -0.80216437       2.89453016      -0.39017263
O        -0.97478673       1.75695890      -0.86627238
C        -0.81006351       3.02972117       1.13889934
O        -1.23471673       1.80890578       1.71646059
C        -2.64725393       1.75008566       1.87985349
C        -3.24635392       0.54959670       1.15212920
O        -2.48231945      -0.23746118       0.55573713
N        -4.56942336       0.39912452       1.20758892
C        -5.14644331      -0.91018544       0.89532126
C        -6.25343293      -0.98431929      -0.15702279
C        -7.05898479      -2.26640121       0.02476073
C        -5.47977730       1.33053158       1.86879564
C        -5.74276978       2.69854394       1.21463180
C        -6.27145800       2.72005839      -0.22715301
C        -5.19542046       2.82230986      -1.31810410
C        -4.72566904       1.47107451      -1.85294290
C        -3.69069924       1.61213579      -2.96129703
C        -3.02664007       0.28285625      -3.32102060
C        -2.34831471       0.35612045      -4.68853554
C        -1.93120932      -0.99030257      -5.27439220
C        -0.81962772      -1.66934558      -4.48263434
C        -0.22238803      -2.87494342      -5.21025092
C        -1.13634334      -4.09460984      -5.18405049
H         3.31921625       7.17252426       0.44902715
H         4.51313517       6.39568645       1.48269032
H         2.88573649       5.72506496       1.36832625
H         3.59242748       8.46248438       2.53758062
H         1.97204270       7.78219980       2.44436158
H         2.71248829       5.88960701       3.91285072
H         4.31239816       6.60495674       4.00361163
H         3.01537887       7.09221157       6.02202894
H         3.48418867       8.55627338       5.16759804
H         1.22198697       8.77567606       6.00032115
H         1.21759230       8.79126621       4.24905365
H         0.68366528       6.24676174       4.41906602
H         0.36671320       6.55622418       6.11857381
H        -1.74797745       6.65025337       5.01545279
H        -1.30706132       8.30785124       5.41088685
H        -2.23638610       8.28554956       3.20336204
H        -0.52484049       8.62941227       3.04068537
H        -0.10846570       6.23612296       2.45050235
H        -1.84474654       5.93286508       2.58203585
H        -2.11120901       7.87391880       0.87980128
H        -0.39738183       7.71043266       0.56675080
H        -2.32963513       5.35981611       0.34306610
H        -2.06298020       6.47301094      -0.97365287
H         0.20790080       5.87959253      -1.23725290
H         0.31084434       5.14619261       0.35553459
H         0.43020603       4.26369488      -2.88867559
H        -0.53060113       2.77339183      -2.79402054
H        -2.60217577       4.19587644      -3.10126749
H        -1.56312556       5.61776180      -3.20447868
H        -1.40090961       3.24635642      -5.12920220
H        -2.22177464       4.76660358      -5.43665437
H        -0.47271297       4.74655403      -5.22273671
H         0.19065054       3.22780280       1.53063877
H        -1.45898466       3.85006260       1.45594859
H        -2.86493533       1.67488435       2.95465030
H        -3.10675423       2.66809011       1.50777458
H        -4.31474300      -1.53785419       0.58364813
H        -5.55585465      -1.29112121       1.83857115
H        -6.92785232      -0.13394792      -0.07210517
H        -5.82415150      -0.97377081      -1.15712173
H        -7.50021935      -2.30864868       1.01701243
H        -7.85844606      -2.30344867      -0.70918480
H        -6.43424141      -3.14582507      -0.10566500
H        -6.43531536       0.81293297       1.94290063
H        -5.13685151       1.49652834       2.89516127
H        -6.49685494       3.16108780       1.85579905
H        -4.86463533       3.34518957       1.26858986
H        -6.90275416       1.85162951      -0.42029379
H        -6.91294069       3.59805288      -0.31135226
H        -5.60503854       3.39278799      -2.15288369
H        -4.33547919       3.38667074      -0.94205401
H        -4.28710040       0.88601478      -1.04775483
H        -5.58933698       0.93009565      -2.24109063
H        -4.17257690       2.03762410      -3.84178967
H        -2.92061348       2.30313907      -2.63034037
H        -2.28892644       0.03738487      -2.53872338
H        -3.78634863      -0.50128254      -3.33858499
H        -3.04050072       0.81873355      -5.39280571
H        -1.47358919       1.00554177      -4.60689296
H        -2.80221209      -1.64490943      -5.32196384
H        -1.59129477      -0.82637175      -6.29805190
H        -0.02884750      -0.94548595      -4.26728430
H        -1.22340322      -2.00111438      -3.52855196
H        -0.01646600      -2.61554290      -6.24978714
H         0.73612406      -3.13538772      -4.74918871
H        -2.06243789      -3.88550558      -5.71156073
H        -0.65544791      -4.94124560      -5.66770393
H        -1.37953328      -4.38275516      -4.16121882
