144
strain_lig_088 ligand at complex geometry  charge=0 uhf=0  from=63|CCCCCCCCN(CCCCCCCC)C(=O)COCC(=O)NCc1cccc(CNC(=O)COCC(=O)N(CCCCCCCC)CCCCCCCC)c1|nitrate
C       -11.95392381       2.66491288      -2.61848944
C       -11.02427441       2.49925613      -3.81218290
C        -9.62744365       2.05382050      -3.39086316
C        -8.73758538       1.85033323      -4.61202229
C        -7.37860111       1.27382342      -4.24766508
C        -6.49708156       2.26300869      -3.49019707
C        -5.12446585       1.63033861      -3.28571204
C        -4.06820036       2.65696930      -2.88020805
N        -2.71999406       2.11093079      -2.84904401
C        -1.85542957       2.20464314      -4.02496477
C        -2.54317665       1.89163769      -5.35357419
C        -2.79711732       0.41059539      -5.64998380
C        -3.52109671       0.27226188      -6.99484618
C        -4.16090993      -1.09514015      -7.23784665
C        -5.47509547      -1.28239203      -6.48206319
C        -6.14401799      -2.62044356      -6.80169990
C        -7.53271301      -2.71738389      -6.17946868
C        -2.21010169       1.54767132      -1.76512744
O        -0.99753377       1.29133841      -1.65121780
C        -3.12321730       1.18896670      -0.60058730
O        -2.44828310       0.16659275       0.12312826
C        -3.26511357      -0.84954731       0.67224536
C        -2.27117655      -1.82163006       1.31469993
O        -1.06497572      -1.54353993       1.33544992
N        -2.75028308      -2.94111572       1.82996986
C        -1.87240757      -3.99312911       2.33283855
C        -1.57971221      -5.00340291       1.25078882
C        -0.28383008      -5.28440653       0.85601059
C        -0.05089356      -6.22624087      -0.13397584
C        -1.10491873      -6.88418805      -0.73441381
C        -2.41165359      -6.61101866      -0.35480988
C        -3.55882218      -7.35148724      -0.98329449
N        -4.83859614      -6.76860569      -0.68112707
C        -5.68199798      -7.36340179       0.19753482
O        -5.43024529      -8.42313615       0.71366588
C        -6.96638184      -6.59564694       0.45254282
O        -6.68307216      -5.21232804       0.57634903
C        -7.73550730      -4.52873657       1.23549051
C        -7.60275410      -2.99524876       1.28850985
O        -7.60725319      -2.43686391       2.36623344
N        -7.56592463      -2.33158468       0.10703206
C        -7.07419105      -2.98371487      -1.09719949
C        -8.09763786      -3.75595774      -1.93579966
C        -7.37719921      -4.73110063      -2.87023871
C        -8.35001941      -5.66244691      -3.58977338
C        -7.66797091      -6.79817857      -4.36078906
C        -7.00966021      -7.84676549      -3.45841794
C        -6.53934815      -9.08243890      -4.23084276
C        -5.89133773     -10.09862235      -3.29653551
C        -7.78957949      -0.88978242      -0.03181100
C        -8.37291771      -0.12472388       1.15778770
C        -8.83288886       1.26970216       0.72127662
C        -9.48138628       2.08303777       1.85189923
C        -8.58123812       3.07597618       2.60211238
C        -7.72951352       2.47592030       3.72423386
C        -7.25464183       3.52842636       4.73323027
C        -6.33814122       4.58952006       4.13436278
C        -2.63301606      -5.66928320       0.63690796
H       -12.93459962       2.98492912      -2.95557243
H       -11.56293733       3.41022228      -1.92897780
H       -12.06080887       1.72213390      -2.08556490
H       -10.94175239       3.44413529      -4.35479380
H       -11.43522193       1.75592923      -4.49957993
H        -9.69313071       1.11224414      -2.83606800
H        -9.19356274       2.80506091      -2.72469641
H        -8.60062740       2.80242221      -5.12757608
H        -9.24191830       1.17039435      -5.30202774
H        -6.86103830       0.99221238      -5.16421675
H        -7.52033402       0.36759342      -3.65473263
H        -6.95135255       2.53040879      -2.53479582
H        -6.40343397       3.17465911      -4.08481455
H        -4.82453053       1.17686228      -4.22838064
H        -5.21325333       0.83182628      -2.54466826
H        -4.30053045       3.08605456      -1.90038440
H        -4.06778453       3.46378062      -3.61548167
H        -1.04078111       1.49461840      -3.84700707
H        -1.43378761       3.21477081      -4.06923614
H        -1.87234857       2.25981936      -6.12855987
H        -3.46842245       2.46099186      -5.45023701
H        -3.37347290      -0.06232510      -4.85244573
H        -1.83827962      -0.10908448      -5.70893228
H        -2.80233706       0.47266405      -7.78994947
H        -4.30765065       1.02714754      -7.06435233
H        -3.46971827      -1.89949322      -6.97806445
H        -4.37541933      -1.19013945      -8.30226266
H        -6.15714129      -0.47791346      -6.76929404
H        -5.31082528      -1.21718629      -5.40048829
H        -5.51346417      -3.43792568      -6.43888745
H        -6.23200782      -2.72899230      -7.88422052
H        -7.48738737      -2.55630640      -5.10424976
H        -7.96342320      -3.69687619      -6.36758634
H        -8.19156974      -1.96457323      -6.60430505
H        -4.10194047       0.86122368      -0.95121162
H        -3.26826423       2.04481495       0.07101429
H        -3.82635753      -1.37389378      -0.11442356
H        -3.97386643      -0.44079396       1.40595364
H        -3.73468880      -3.15369494       1.77564862
H        -2.36125014      -4.47217839       3.18461260
H        -0.95550212      -3.51543438       2.68483826
H         0.54057361      -4.78923263       1.34127795
H         0.95713989      -6.47179303      -0.42735615
H        -0.92079001      -7.63556617      -1.48035620
H        -3.58985124      -8.36897363      -0.57270169
H        -3.44353961      -7.41717540      -2.07003783
H        -5.05421686      -5.85421441      -1.04236531
H        -7.40715511      -6.98236045       1.37358365
H        -7.66743625      -6.77817099      -0.37429684
H        -7.77701064      -4.87495956       2.27464078
H        -8.70247834      -4.75949570       0.76529925
H        -6.29106089      -3.67918384      -0.78882658
H        -6.61079548      -2.21424565      -1.72293242
H        -8.71485295      -3.05891715      -2.50228795
H        -8.75790310      -4.33002967      -1.28743350
H        -6.69138633      -5.33307438      -2.27194720
H        -6.78144249      -4.18476502      -3.60595137
H        -8.94784139      -5.07524991      -4.28772461
H        -9.03275093      -6.09986964      -2.85805185
H        -6.92219059      -6.38886959      -5.04884927
H        -8.42849228      -7.29967762      -4.96343009
H        -7.72910393      -8.16964592      -2.70017139
H        -6.14820753      -7.41422819      -2.93840596
H        -5.82796192      -8.78281506      -5.00644048
H        -7.39390821      -9.54249201      -4.73160205
H        -5.02644140      -9.66751939      -2.79576632
H        -5.56862195     -10.97447966      -3.85077705
H        -6.59662866     -10.41756720      -2.53372078
H        -8.48811593      -0.77418959      -0.86880366
H        -6.83666405      -0.41619791      -0.32756170
H        -7.64980028      -0.05900638       1.96944521
H        -9.23897798      -0.65513649       1.54759693
H        -9.56677227       1.14777507      -0.07749474
H        -8.00474241       1.83449839       0.29314130
H        -9.92129411       1.39081723       2.56939993
H       -10.29929136       2.66136055       1.41818294
H        -9.23307643       3.82120278       3.06373617
H        -7.94450526       3.60533139       1.88957376
H        -6.85869370       1.95407973       3.32057280
H        -8.33425234       1.74296644       4.26220306
H        -6.72448896       3.01990049       5.54340575
H        -8.12837253       4.01346111       5.17086576
H        -5.44540773       4.13158154       3.71664987
H        -6.02762263       5.29062672       4.90350079
H        -6.84020461       5.14753175       3.34927974
H        -3.64156398      -5.48103818       0.96704983
