131
strain_lig_095 ligand at complex geometry  charge=0 uhf=0  from=66|CCCCCCCCN(CCCCCCCC)C(=O)[C@H](CCC)O[C@H](CCC)C(=O)N(CCCCCCCC)CCCCCCCC|nitrate
C        -0.06375692      -7.33567211       4.52030167
C        -0.60182781      -6.15226475       5.30982817
C         0.42601442      -5.04590846       5.54143924
C         0.89770203      -4.38886522       4.24186188
C         1.51187558      -2.99772200       4.45301469
C         3.02730010      -3.03847183       4.64635498
C         3.69240778      -1.65823684       4.72683761
C         3.97823541      -0.94964024       3.38496495
N         2.75883651      -0.54218293       2.70354414
C         1.86100169       0.37112903       3.42316424
C         2.53801557       1.58522190       4.05205313
C         3.17013757       2.54202530       3.03753009
C         3.57135989       3.88799343       3.65905420
C         2.43580194       4.68040604       4.32032880
C         1.22083025       4.90207688       3.41831047
C         0.06973686       5.62016371       4.13123745
C         0.29155918       7.11242204       4.33729271
C         2.21250884      -1.13453664       1.64674809
O         0.98355228      -1.02298665       1.44418450
C         3.01690112      -1.83524796       0.51350312
C         3.65119620      -3.19662027       0.86277333
C         5.12623933      -3.32268734       0.44675284
C         5.85864027      -4.40087537       1.23958474
O         2.01551996      -1.84445334      -0.50607925
C         2.16318723      -2.53626620      -1.74768806
C         1.40112061      -3.88629444      -1.69063760
C         0.08841625      -3.83936369      -0.90242383
C        -1.09058274      -3.25467356      -1.67495353
C         1.58428140      -1.52083126      -2.76825719
O         0.99661843      -0.53524173      -2.26836617
N         1.77171265      -1.61373844      -4.08182967
C         1.48268033      -0.44613934      -4.93465975
C         2.72508624       0.43767298      -5.09536342
C         2.79990159       1.16563380      -6.44118051
C         1.89090467       2.38861875      -6.57633352
C         2.35800445       3.61864397      -5.78802282
C         3.72413676       4.18114724      -6.21738882
C         3.69003221       5.70554666      -6.32221587
C         3.00262775       6.14334447      -7.60790890
C         2.22496037      -2.79818081      -4.79722989
C         1.06939688      -3.67592701      -5.31712099
C        -0.00386895      -2.87348305      -6.04221187
C        -1.19999624      -3.67185225      -6.55884017
C        -2.02894214      -2.78776846      -7.50011721
C        -2.63505528      -1.56275418      -6.80692065
C        -3.40979702      -0.65905456      -7.77047562
C        -2.49306750       0.18279580      -8.64993225
H        -0.81482905      -8.11704808       4.44617070
H         0.81079687      -7.75749874       5.00666775
H         0.20864526      -7.04234683       3.51079925
H        -0.94763154      -6.50803832       6.28082587
H        -1.46236569      -5.73471461       4.78240126
H         1.27569459      -5.45124886       6.09254234
H        -0.04769578      -4.29035505       6.17142498
H         0.03812154      -4.29138373       3.57278774
H         1.62703914      -5.03476699       3.74694166
H         1.05618783      -2.53371941       5.33048802
H         1.27172976      -2.38501157       3.58532723
H         3.47298659      -3.61340059       3.83218552
H         3.26279379      -3.57615274       5.56722191
H         4.65513396      -1.77113796       5.22575975
H         3.09240923      -0.99999074       5.35503753
H         4.56241011      -1.59425332       2.72881670
H         4.58495051      -0.06383234       3.59273497
H         1.31460343      -0.18620751       4.18839966
H         1.12297883       0.72383761       2.69315104
H         3.27660832       1.28426366       4.79388688
H         1.75088836       2.11298315       4.59239822
H         2.47535739       2.70601944       2.20898386
H         4.07209227       2.09193011       2.61356835
H         4.02375504       4.50713582       2.87965505
H         4.34133288       3.70993310       4.41440681
H         2.83492526       5.64914204       4.62561543
H         2.12558496       4.16966212       5.23368213
H         0.86253937       3.92940098       3.06917209
H         1.52157052       5.48158704       2.54190951
H        -0.09881588       5.14303101       5.09716921
H        -0.84636590       5.49176380       3.54827239
H         1.15388856       7.30175827       4.96592235
H        -0.57358776       7.55309447       4.82299547
H         0.43899521       7.61881097       3.38701847
H         3.82960815      -1.15690237       0.20888744
H         3.58866516      -3.35945695       1.93640820
H         3.06178025      -3.98499755       0.40340078
H         5.63557579      -2.36826913       0.60029333
H         5.19945961      -3.54529592      -0.61808321
H         5.87328233      -4.16869331       2.30082174
H         6.88791437      -4.46813670       0.90525980
H         5.39487837      -5.37231112       1.10830973
H         3.22485920      -2.70737122      -1.97683601
H         1.20185818      -4.25293154      -2.69398237
H         2.06514373      -4.61968286      -1.22985044
H         0.22835702      -3.28147788       0.02932531
H        -0.15443547      -4.86809159      -0.63295997
H        -0.91397743      -2.22127447      -1.99445520
H        -1.97626084      -3.28643995      -1.04335036
H        -1.30473946      -3.85770330      -2.55456745
H         0.65146252       0.10510011      -4.49835254
H         1.19002169      -0.80442965      -5.91755417
H         3.60519666      -0.20125190      -5.02702438
H         2.77308956       1.15433984      -4.27923203
H         2.56457580       0.45165864      -7.23430570
H         3.82773276       1.49579143      -6.59804512
H         0.87538183       2.12751423      -6.27038213
H         1.83865884       2.65881554      -7.63270831
H         2.38998506       3.39304069      -4.71773337
H         1.60161915       4.39576560      -5.92478173
H         4.01023534       3.78492502      -7.18829594
H         4.48984624       3.88011654      -5.50170559
H         4.70331148       6.10523275      -6.30403133
H         3.16053814       6.12078180      -5.46317729
H         3.60875659       5.87337695      -8.46818142
H         2.85217415       7.21931613      -7.61780291
H         2.03031260       5.66243955      -7.70963054
H         2.87813673      -3.38156046      -4.14903812
H         2.80849891      -2.45734289      -5.65346235
H         0.59128957      -4.21291346      -4.50017710
H         1.49955870      -4.41615111      -5.99099195
H         0.44187083      -2.37453245      -6.90505994
H        -0.40036004      -2.13540761      -5.34742932
H        -1.82173010      -4.00699997      -5.72502010
H        -0.85882957      -4.55839924      -7.09744372
H        -2.83556240      -3.37842720      -7.93802530
H        -1.38036499      -2.46330283      -8.31711291
H        -1.84924049      -0.96179845      -6.34201669
H        -3.30416386      -1.90196538      -6.01185489
H        -4.04810011       0.01188998      -7.19155403
H        -4.06149571      -1.26823394      -8.39765612
H        -1.89097426       0.85211005      -8.03944260
H        -3.07716117       0.78756076      -9.33687874
H        -1.82624742      -0.44456705      -9.23340764
