53
strain_lig_139 ligand at complex geometry  charge=0 uhf=0  from=66|CCCN(CCC)C(=O)COCC(=O)N(CCC)CCC|nitrate
C        -0.50293723       0.68860858       7.49894023
C        -1.23926647       0.45924314       6.18730737
C        -0.61049721      -0.68189378       5.38534860
N        -1.19741069      -0.80081251       4.06068705
C        -2.31051225      -1.73805466       3.86622494
C        -3.59584317      -1.10913223       3.32103395
C        -4.17655470      -0.02709294       4.21987400
C        -0.75455649      -0.12637698       3.01478629
O        -1.26331065      -0.25308652       1.88316604
C         0.45958467       0.81516608       3.12453942
O         0.66522068       1.46390795       1.87167290
C         0.31204609       2.84179906       1.77079479
C        -0.52862856       3.03839348       0.49618799
O        -0.82061954       2.01696969      -0.17046241
N        -0.95467186       4.23437751       0.14442041
C        -0.58429108       5.48373254       0.79668492
C         0.36284461       6.32820277      -0.06460761
C         1.65924856       5.60513505      -0.40504461
C        -1.84119050       4.31857824      -1.02187153
C        -1.17521182       3.99336466      -2.36178953
C        -2.21612536       4.05176286      -3.47351995
H        -0.96396758       1.50508297       8.04610645
H        -0.54035528      -0.20189289       8.11935779
H         0.53979646       0.94166707       7.32212877
H        -2.28211881       0.21893330       6.38577379
H        -1.21946089       1.36974404       5.58647867
H         0.46666146      -0.52812576       5.29346113
H        -0.75946836      -1.62165425       5.92077739
H        -1.97193914      -2.50935114       3.16640382
H        -2.51540895      -2.20148412       4.83089258
H        -3.40844146      -0.70606943       2.32497817
H        -4.32258289      -1.91513127       3.21817319
H        -3.50374494       0.82313910       4.29243081
H        -5.11626516       0.32281389       3.80532318
H        -4.38072925      -0.40379076       5.21925061
H         0.37769222       1.53419269       3.94407894
H         1.34027093       0.18315611       3.29298952
H        -0.26323182       3.16346924       2.64500732
H         1.23692816       3.43256887       1.71135841
H        -1.49598345       6.05609665       0.99570887
H        -0.10728272       5.27018397       1.75154466
H        -0.14196576       6.61795679      -0.98463990
H         0.59325427       7.24098349       0.48670393
H         1.46970976       4.67277701      -0.93320444
H         2.27187703       6.23555163      -1.04236887
H         2.23240249       5.38320545       0.49145265
H        -2.65713361       3.60647909      -0.86141119
H        -2.24955474       5.32861873      -1.05459980
H        -0.38025556       4.71263514      -2.56069323
H        -0.73509163       2.99258513      -2.32845453
H        -2.65868720       5.04172425      -3.54102857
H        -1.75805548       3.82231772      -4.42952909
H        -3.01095861       3.33226421      -3.29655554
