96
strain_lig_121 ligand at complex geometry  charge=0 uhf=0  from=66|CCCCCCc1ccc(N(CC)C(=O)c2cccc(-c3cccc(C(=O)N(CC)c4ccc(CCCCCC)cc4)n3)n2)cc1|nitrate
C        -3.82409648       6.86836949      -3.47869612
C        -3.72404098       7.81089681      -2.28542068
C        -4.81931441       7.52470727      -1.25788542
C        -4.58647129       8.28886041       0.04476840
C        -5.49279449       7.83820283       1.20008193
C        -4.75581360       7.09724429       2.33320373
C        -4.58588859       5.62325149       2.10820232
C        -5.21548394       4.68723738       2.92793512
C        -4.97500914       3.32242286       2.80559075
C        -4.11121315       2.87753578       1.81494397
N        -3.82263246       1.49727250       1.49954406
C        -4.72684390       0.97859449       0.45262378
C        -5.22705927      -0.41127649       0.82193890
C        -2.54775443       1.05034561       1.42322654
O        -2.12158354       0.53127106       0.36642590
C        -1.57830527       1.10221988       2.58615231
C        -1.80948525       1.59231590       3.86245471
C        -0.72765563       1.68957642       4.73002323
C         0.52810073       1.24488258       4.36368340
C         0.68244159       0.70487807       3.09141141
C         2.01508521       0.33761490       2.52286906
C         3.19435558       0.90587869       3.00921017
C         4.37594203       0.66763175       2.33347032
C         4.37582981      -0.08476525       1.16347534
C         3.16868862      -0.60932190       0.71980704
C         2.84563439      -1.24276558      -0.61825993
O         1.68895584      -0.97338352      -1.02069278
N         3.62634297      -2.03995265      -1.35207056
C         5.08008834      -2.06041946      -1.32850687
C         5.62296150      -0.90295068      -2.16293503
C         2.98927036      -2.94569421      -2.26698595
C         3.47516515      -3.26467225      -3.53357108
C         2.92853288      -4.31523930      -4.25920743
C         1.90079496      -5.09701260      -3.73824007
C         1.36668335      -6.31728984      -4.42453226
C         0.02923261      -6.11301906      -5.17828759
C        -1.19650951      -6.50596583      -4.34340954
C        -2.55861890      -6.33225468      -5.03466118
C        -3.06197438      -4.89719501      -5.20680104
C        -4.47286803      -4.83162409      -5.79175893
C         1.39144185      -4.72517335      -2.50336792
C         1.89968662      -3.66109001      -1.79146928
N         2.03145088      -0.42478808       1.42361616
N        -0.36098181       0.64336452       2.26051221
C        -3.57166719       3.79665259       0.91639684
C        -3.77227856       5.14986460       1.08036795
H        -3.09508059       7.12520039      -4.24309187
H        -4.81352641       6.92274299      -3.92382103
H        -3.64995536       5.83612438      -3.17373835
H        -3.80423324       8.84251976      -2.63133709
H        -2.73781104       7.69660603      -1.82042184
H        -4.85923459       6.44769121      -1.06919169
H        -5.78629249       7.81958145      -1.66778477
H        -4.75070743       9.34892138      -0.15020158
H        -3.54022493       8.19028718       0.34493079
H        -6.28831288       7.19750559       0.82203654
H        -5.96986503       8.71182309       1.64162752
H        -5.29398142       7.24668977       3.27047294
H        -3.76364600       7.54169906       2.45492873
H        -5.90385637       5.04420035       3.68296443
H        -5.46788540       2.63638115       3.47868453
H        -4.19690543       0.93932046      -0.50544500
H        -5.56853256       1.66351377       0.35723450
H        -4.38890402      -1.10341952       0.88769142
H        -5.91574156      -0.75543387       0.05194743
H        -5.75658641      -0.39685040       1.77356103
H        -2.79747971       1.89867066       4.15748634
H        -0.85265040       2.15390147       5.68590121
H         1.36333644       1.31145965       5.04330427
H         3.18808750       1.55438720       3.86508630
H         5.29979496       1.08758040       2.69304830
H         5.28097289      -0.20785185       0.59376642
H         5.39053726      -3.02120172      -1.74137022
H         5.42751075      -2.02028941      -0.29552513
H         5.30475980      -0.98252433      -3.19827118
H         6.70653447      -0.91532699      -2.14266153
H         5.25635353       0.04608671      -1.77989547
H         4.30681013      -2.72199977      -3.95023014
H         3.33262496      -4.56574540      -5.22954468
H         1.21150076      -7.09058423      -3.67081186
H         2.12667288      -6.66704291      -5.12038929
H         0.05017870      -6.74674158      -6.06509944
H        -0.03440487      -5.08274026      -5.53041429
H        -1.19588990      -5.97856814      -3.38659034
H        -1.09797610      -7.56932493      -4.11968491
H        -3.29751117      -6.86815639      -4.43637824
H        -2.52120379      -6.80870598      -6.01397189
H        -2.38831684      -4.34932973      -5.87321308
H        -3.08720901      -4.39865283      -4.23106791
H        -4.52144296      -5.34218428      -6.75002369
H        -4.76366743      -3.79195079      -5.93911262
H        -5.19304259      -5.28945026      -5.11662558
H         0.61800250      -5.32546333      -2.06437582
H         1.48480687      -3.42348357      -0.82385111
H        -2.97952616       3.42573310       0.08884573
H        -3.29159972       5.84023169       0.40527953
