68
strain_lig_170 ligand at complex geometry  charge=0 uhf=0  from=63|O=P(c1ccccc1)(c1ccccc1)c1ccc2ccc3ccc(P(=O)(c4ccccc4)c4ccccc4)nc3c2n1|nitrate
O        -0.11085479      -0.55913432      -2.05668565
P        -1.32881447      -1.10621711      -2.73500876
C        -0.90300746      -2.20070891      -4.12267527
C        -0.34973874      -1.60183570      -5.25028120
C         0.01174335      -2.36371519      -6.34806626
C        -0.20064688      -3.73512720      -6.34128323
C        -0.74528789      -4.33806200      -5.22137445
C        -1.09118822      -3.57887458      -4.11474618
C        -2.31668574       0.30651024      -3.33684452
C        -3.69949389       0.41079112      -3.25623348
C        -4.33438112       1.54263416      -3.74432146
C        -3.59039474       2.55678499      -4.33190801
C        -2.20697857       2.47087684      -4.39466566
C        -1.57407353       1.35248880      -3.88215172
C        -2.26711422      -2.00892457      -1.42294472
C        -3.22074710      -3.02645265      -1.55711548
C        -3.76770631      -3.57244908      -0.41877285
C        -3.45880156      -3.02210469       0.83467972
C        -4.10050995      -3.43773020       2.03755513
C        -3.92751761      -2.74344097       3.18758868
C        -3.10919428      -1.57545722       3.22375146
C        -3.06748783      -0.71163277       4.33173126
C        -2.32188660       0.44150690       4.26827289
C        -1.57348147       0.70451745       3.11223233
P        -0.52788531       2.19803682       2.80077671
O         0.37264496       1.91042662       1.63847259
C        -1.76290233       3.46715089       2.37598087
C        -1.55376415       4.80815441       2.66250065
C        -2.48410639       5.75464691       2.26762044
C        -3.62745300       5.36168973       1.58881442
C        -3.84493907       4.02378966       1.30020132
C        -2.91749402       3.07797704       1.70065069
C         0.54733093       2.65809427       4.17547951
C         0.66732552       1.96143030       5.36548852
C         1.60202861       2.36692937       6.30278295
C         2.40171354       3.47166692       6.05071371
C         2.31447528       4.14576004       4.84180315
C         1.39780584       3.72637006       3.89794907
N        -1.61791117      -0.07996283       2.04553696
C        -2.37473186      -1.19236969       2.07937881
C        -2.54130111      -1.94581607       0.86257764
N        -1.90938880      -1.51661774      -0.24397641
H        -0.21456474      -0.53318150      -5.28037323
H         0.46447456      -1.89620143      -7.20944681
H         0.07825259      -4.32720452      -7.20197965
H        -0.88727238      -5.41002648      -5.21288899
H        -1.51080223      -4.07683956      -3.25852270
H        -4.27420645      -0.38463470      -2.80959226
H        -5.40724083       1.63995226      -3.67159935
H        -4.08739561       3.42052338      -4.74235186
H        -1.61991689       3.26762513      -4.83229178
H        -0.49680653       1.28060501      -3.88061440
H        -3.52833944      -3.37577786      -2.52748289
H        -4.46827222      -4.38879939      -0.46988067
H        -4.77081500      -4.28445904       1.99604165
H        -4.45489869      -3.02765033       4.08706213
H        -3.64205967      -0.96512629       5.20768726
H        -2.31922730       1.14178751       5.08745803
H        -0.67572366       5.11338433       3.20531747
H        -2.31537482       6.79615181       2.49248458
H        -4.35003223       6.10373993       1.28993934
H        -4.74128721       3.72407786       0.77155437
H        -3.09830200       2.03235758       1.50074449
H         0.05161362       1.09930906       5.55752711
H         1.71122695       1.81961818       7.22659997
H         3.11214148       3.79977188       6.79116082
H         2.96153321       4.98701318       4.63238973
H         1.34412789       4.20158881       2.93096305
