65
strain_lig_018 ligand at complex geometry  charge=0 uhf=0  from=58|CC12CCC(c3nnc(-c4cccc(-c5nnc6c(n5)C5(C)CCC6C5(C)C)n4)nc31)C2(C)C|nitrate
C        -4.02523457       3.88638751       5.16177154
C        -2.66277139       3.22920446       5.15213806
C        -1.47501024       4.15323497       5.53523517
C        -0.31088901       3.19247212       5.84125064
C        -0.92021403       1.79473111       5.58602637
C        -1.13128353       1.77057077       4.11593094
N        -0.46622779       1.24288727       3.12661863
N        -1.04656993       1.25227469       1.92506643
C        -2.28229329       1.73553450       1.81410300
C        -3.07037161       1.27860631       0.66364141
C        -4.32617850       1.78962527       0.35553175
C        -5.05158865       1.17412599      -0.64970366
C        -4.51560664       0.08395438      -1.31899968
C        -3.24003057      -0.33959041      -0.96004944
C        -2.56833638      -1.50595236      -1.56265838
N        -1.25121676      -1.55488415      -1.40344434
N        -0.56327425      -2.64177074      -1.75202860
C        -1.26503540      -3.65388042      -2.19086495
C        -2.67742068      -3.56070828      -2.38134539
N        -3.33388875      -2.46429255      -2.10504603
C        -3.17208457      -4.91797505      -2.71627009
C        -4.66563222      -5.10828523      -2.57673151
C        -2.60401594      -5.22827670      -4.12752191
C        -1.08315236      -5.34185579      -3.91658055
C        -0.90496946      -5.07695950      -2.40673635
C        -2.18398833      -5.72806913      -1.79910443
C        -2.26751315      -7.23392565      -1.97766659
C        -2.33084410      -5.41071952      -0.30414704
N        -2.54257989       0.24057142       0.01275637
N        -2.88349752       2.52700722       2.71467010
C        -2.28068550       2.58627110       3.86963032
C        -2.38924977       1.98601750       6.07725052
C        -2.50159142       2.26445082       7.56773327
C        -3.31007500       0.80661094       5.74567819
H        -4.03697331       4.74360815       4.49145300
H        -4.26985333       4.22996497       6.16121843
H        -4.79275786       3.18951587       4.83395150
H        -1.75500729       4.73776799       6.40853744
H        -1.23913903       4.85398232       4.73510822
H         0.01749456       3.26104104       6.87471206
H         0.55799439       3.36846399       5.20745158
H        -0.35339970       0.95687446       5.98786314
H        -4.69880354       2.63745094       0.90302874
H        -6.03595713       1.53229688      -0.89508939
H        -5.03841348      -0.42794654      -2.10368616
H        -5.18812051      -4.48369538      -3.29827242
H        -5.00158607      -4.82761650      -1.58131357
H        -4.92867351      -6.14411279      -2.76389209
H        -2.87477826      -4.45120079      -4.84193190
H        -3.03834164      -6.16138340      -4.48050327
H        -0.52072218      -4.62699780      -4.51575991
H        -0.71431038      -6.33564321      -4.15654643
H         0.05535904      -5.37372721      -1.98939895
H        -2.17234800      -7.55139526      -3.00918025
H        -3.21946865      -7.59077238      -1.59648104
H        -1.47692943      -7.70550115      -1.40143874
H        -2.28575645      -4.34128537      -0.07718404
H        -1.53012331      -5.90195223       0.24720159
H        -3.27595086      -5.80109893       0.06819892
H        -1.90475276       3.10466607       7.89988375
H        -2.18015510       1.38136355       8.11223549
H        -3.53668532       2.45574191       7.83028474
H        -3.20608742       0.45235515       4.71788133
H        -4.34935363       1.09319541       5.89786056
H        -3.10502883      -0.02079938       6.42187656
