61
strain_lig_140 ligand at complex geometry  charge=0 uhf=0  from=64|CCCc1nnc(-c2cccc(-c3nnc(CCC)c(CCC)n3)n2)nc1CCC|nitrate
C         6.08741088       1.71743201       1.81185803
C         5.65520985       0.62041719       2.78726509
C         4.15784357       0.29343106       2.69633253
C         3.59863140      -0.69216850       1.71495080
N         2.26574986      -0.61009871       1.63323838
N         1.53684325      -1.48014236       0.93849935
C         2.15927774      -2.47365595       0.28457435
C         1.49966621      -2.85784119      -1.01401735
C         1.59926073      -3.94564519      -1.86989411
C         1.32238845      -3.73132012      -3.22327846
C         1.12665252      -2.44579966      -3.73594948
C         1.05123718      -1.41645904      -2.81837878
C         1.21080559       0.08353784      -2.79352578
N         2.43012511       0.36943353      -2.30579406
N         2.57799497       1.45467021      -1.58072270
C         1.60621238       2.35725197      -1.44088128
C         1.90233351       3.51138053      -0.51800412
C         3.41393043       3.71081960      -0.33882798
C         4.02805481       4.27439363      -1.61257327
C         0.37104047       2.12556686      -2.15953070
C        -0.66908798       3.14340753      -2.37606609
C        -0.15294134       4.10678101      -3.48669544
C         0.19570563       3.37074877      -4.77117293
N         0.18863879       0.92861160      -2.72552505
N         1.12955040      -1.66372851      -1.50295864
N         3.46908308      -2.60697613       0.29524290
C         4.22874287      -1.68729450       0.88293910
C         5.57960009      -1.61889309       0.28950030
C         5.40986861      -1.48109784      -1.24894585
C         5.14955938      -2.81194578      -1.93579527
H         5.69491293       2.68252305       2.13504725
H         5.74383085       1.52271539       0.79541053
H         7.17164980       1.79301930       1.79631991
H         5.84867306       0.98905184       3.79853662
H         6.25767615      -0.28311073       2.67740276
H         3.57945843       1.21994702       2.58197496
H         3.84642925      -0.11303295       3.66981758
H         1.91885496      -4.91970687      -1.53317944
H         1.34812818      -4.56787575      -3.90782552
H         1.06350701      -2.27336988      -4.79613116
H         1.44167138       3.33852919       0.46907731
H         1.45469665       4.42077980      -0.92009453
H         3.88172452       2.75441686      -0.09161741
H         3.58655805       4.39597590       0.48762990
H         3.94158291       3.55388026      -2.42239637
H         5.08118071       4.48686042      -1.45749951
H         3.52655547       5.19495863      -1.90677730
H        -0.88106470       3.72563079      -1.47619742
H        -1.57318703       2.64633111      -2.73108902
H         0.71299689       4.66662290      -3.12880621
H        -0.95796072       4.81692693      -3.67404371
H         1.07356833       2.73243128      -4.65383839
H         0.41570615       4.10261873      -5.54544309
H        -0.63660633       2.75244303      -5.10508627
H         6.11397239      -2.55581379       0.46046785
H         6.16962380      -0.79695487       0.68020592
H         6.33439533      -1.05490587      -1.63586210
H         4.59887399      -0.77954269      -1.47320125
H         5.84179960      -3.56102453      -1.56253041
H         5.29989842      -2.70624241      -3.00594560
H         4.13773890      -3.16610349      -1.76129674
