77
strain_lig_123 ligand at complex geometry  charge=0 uhf=0  from=63|CCCCCN(CCCCC)C(=O)COCC(=O)N(CCCCC)CCCCC|nitrate
C        -3.49863012      -6.21146714       0.39473393
C        -3.51663839      -5.82164901       1.87262694
C        -3.45655819      -4.30740990       2.11087050
C        -4.79590071      -3.62464770       1.80054949
C        -4.73335474      -2.23968104       1.14850896
N        -4.13592565      -1.09364456       1.85216786
C        -4.88273559      -0.58803265       2.99965473
C        -4.72552611      -1.34349402       4.32724333
C        -3.40823216      -1.12929597       5.07348136
C        -2.29796621      -2.07353258       4.62864878
C        -1.03622781      -1.91312656       5.46405112
C        -3.24089714      -0.36404883       1.19221193
O        -2.67013771      -0.73739036       0.14438725
C        -2.84922842       1.05290439       1.65811815
O        -2.03848281       1.63697689       0.63723940
C        -2.76560011       2.32665785      -0.39091478
C        -1.91789034       2.36611384      -1.66744972
O        -1.52216960       1.24501263      -2.06973801
N        -1.72540876       3.47800827      -2.36507886
C        -1.23866585       3.31985756      -3.74574857
C         0.06316671       4.03568663      -4.09632501
C         1.21588582       3.65970340      -3.16985642
C         2.50416047       4.37964198      -3.56928390
C         3.67636091       3.99208272      -2.67894805
C        -1.73029204       4.83382765      -1.81281684
C        -2.97744155       5.71887158      -1.91591595
C        -3.65673785       5.78487852      -3.27947503
C        -4.65690525       4.64521108      -3.46786807
C        -5.40245091       4.74958929      -4.79129554
H        -3.75726370      -7.26335603       0.27996626
H        -2.50960575      -6.05922593      -0.04157709
H        -4.22388936      -5.63412436      -0.18102705
H        -2.67609407      -6.31066560       2.36819027
H        -4.42654901      -6.20572947       2.33378187
H        -2.65652832      -3.86929746       1.51137255
H        -3.19510728      -4.14455315       3.15252298
H        -5.41743384      -3.60659855       2.69482913
H        -5.33354023      -4.24584774       1.07807413
H        -5.77139672      -1.96097303       0.92968190
H        -4.19110938      -2.31705951       0.20455693
H        -5.94236048      -0.60616586       2.72541661
H        -4.61359533       0.45119172       3.17397559
H        -4.88322352      -2.40943929       4.18787500
H        -5.54220924      -0.98992905       4.95629093
H        -3.59561873      -1.30847830       6.13112845
H        -3.08412355      -0.09461634       4.97464766
H        -2.07196116      -1.91110562       3.56903506
H        -2.65605926      -3.09580228       4.75517667
H        -0.63484695      -0.90591288       5.38355240
H        -0.27451370      -2.62377890       5.15188792
H        -1.25533704      -2.10318879       6.51026662
H        -2.22923364       1.01435595       2.56115809
H        -3.72352067       1.68614352       1.83213616
H        -3.06515643       3.31417766      -0.04179392
H        -3.65684881       1.74988698      -0.66895680
H        -2.02172851       3.67326387      -4.41703558
H        -1.09466755       2.24695928      -3.89145492
H        -0.06689977       5.11981245      -4.12141302
H         0.30916703       3.73732828      -5.11524960
H         1.36685418       2.57608466      -3.21043391
H         0.96651209       3.91644217      -2.13489387
H         2.35490780       5.45927436      -3.51169906
H         2.74479908       4.13688069      -4.60642425
H         3.51453484       4.33230780      -1.65712805
H         4.59093839       4.44117548      -3.05544515
H         3.80455481       2.91252145      -2.67276047
H        -0.91636521       5.34713335      -2.32392433
H        -1.46173719       4.76238109      -0.76011720
H        -2.63980719       6.71899243      -1.64844916
H        -3.71138055       5.41958450      -1.16986217
H        -2.91340864       5.78857729      -4.07909324
H        -4.20518190       6.72507501      -3.35180032
H        -5.38520214       4.69019158      -2.65359341
H        -4.14861921       3.67665240      -3.40220060
H        -5.94135197       5.68990691      -4.84777949
H        -6.12172808       3.94110164      -4.87968814
H        -4.71612149       4.70142036      -5.63202945
