120
strain_lig_089 ligand at complex geometry  charge=0 uhf=0  from=66|CCCCCCCCN(CCCCCCCC)C(=O)COCCOCC(=O)N(CCCCCCCC)CCCCCCCC|nitrate
C         3.92529005       1.09329667      -1.46384071
C         4.86875950       0.01250555      -1.99051024
C         4.89410732      -1.21367846      -1.07824864
C         5.50394505      -2.47511876      -1.70024190
C         4.61790884      -3.17070792      -2.74139223
C         3.29660462      -3.71175763      -2.17823008
C         3.44310519      -4.99303886      -1.34722945
C         2.31407867      -5.11368078      -0.31274771
N         2.61965991      -4.19786022       0.78541601
C         3.53975211      -4.71244978       1.79217266
C         2.81739907      -5.02800095       3.10429903
C         3.80342150      -5.48016175       4.19679380
C         3.86676942      -4.51598341       5.38289317
C         4.62390611      -3.20545293       5.14068351
C         6.15533482      -3.34488785       5.11833491
C         6.78575730      -3.30841735       3.72394638
C         6.76578961      -1.91768701       3.09107547
C         2.17007968      -2.95464810       0.79838448
O         1.20738425      -2.54123630       0.10495724
C         2.91231753      -1.95773025       1.68788169
O         2.63185822      -0.63991382       1.22697188
C         3.18447384       0.32302492       2.12545861
C         2.42350954       1.64444538       1.97041754
O         1.02694433       1.39431618       1.81762750
C         0.36753822       1.06544360       3.05139616
C        -0.62982968      -0.05523089       2.69289192
O        -0.21812682      -0.85203718       1.81432213
N        -1.82819236      -0.16946914       3.23020890
C        -2.24955083       0.53705863       4.45028406
C        -3.61956412       1.21886624       4.34337065
C        -3.73058704       2.51028715       5.16639769
C        -4.89195314       3.37535990       4.66037824
C        -4.70616424       4.87806164       4.95014095
C        -4.83725833       5.73779654       3.68836158
C        -6.30431975       5.97909859       3.29964263
C        -6.52559064       5.86890397       1.79632136
C        -2.88674153      -0.99812661       2.60871700
C        -2.63398738      -2.13259151       1.59421509
C        -4.02963972      -2.50932505       1.05543217
C        -4.18196522      -3.82910603       0.28303513
C        -4.11866120      -3.74490094      -1.25601149
C        -5.46839763      -3.74456915      -2.01558349
C        -5.93760295      -2.42548265      -2.65714460
C        -6.93054449      -1.65214157      -1.79472495
H         3.78275706       1.87391949      -2.20728471
H         4.34529665       1.55834790      -0.57622925
H         2.93298622       0.67698638      -1.19626272
H         5.87093799       0.43225442      -2.06192947
H         4.57092406      -0.27112972      -3.00047958
H         3.86602592      -1.42673048      -0.77059697
H         5.46341832      -0.96107361      -0.18178533
H         5.72671847      -3.18053350      -0.89707348
H         6.45184742      -2.22199738      -2.17409315
H         5.17718793      -3.99802606      -3.18137521
H         4.39558567      -2.47334054      -3.55429515
H         2.61609951      -3.92799664      -3.00535420
H         2.82774734      -2.93575137      -1.56765461
H         4.39800046      -4.99708944      -0.81728293
H         3.43660859      -5.86035905      -2.00812171
H         2.25964932      -6.13273811       0.07071156
H         1.34849722      -4.84638910      -0.74243800
H         4.35540148      -4.01623649       1.99076086
H         3.98561445      -5.63228594       1.41476040
H         2.07805618      -5.80530420       2.91333982
H         2.26597642      -4.15095558       3.44753104
H         4.80110501      -5.60399246       3.77893884
H         3.50008507      -6.45725686       4.56963814
H         4.33507656      -5.02457452       6.22413500
H         2.84518700      -4.28076041       5.68906742
H         4.35404035      -2.52182375       5.94721618
H         4.28534113      -2.74415031       4.21098729
H         6.43394582      -4.27996849       5.60129497
H         6.60565465      -2.54414020       5.70618649
H         6.28016738      -4.02362831       3.07058301
H         7.82759313      -3.62512774       3.79918464
H         5.75408729      -1.50725435       3.04698142
H         7.17153264      -1.95479376       2.07973802
H         7.37649567      -1.23471587       3.67818455
H         3.99221633      -2.15197805       1.62748058
H         2.58980887      -2.07994679       2.73400387
H         4.25675478       0.47032131       1.94755950
H         3.06580322      -0.04613680       3.15205561
H         2.71892117       2.18311993       1.06691865
H         2.62060586       2.28097692       2.84141732
H        -0.11425594       1.96857184       3.43990643
H         1.09195246       0.70085213       3.79260851
H        -1.50947947       1.29827743       4.69127456
H        -2.25039187      -0.19418509       5.26180185
H        -4.41511972       0.53430023       4.63606143
H        -3.77387448       1.46680333       3.29546966
H        -2.80319363       3.08082648       5.07310946
H        -3.85886554       2.27909676       6.22458217
H        -5.82662443       3.01305018       5.07960135
H        -4.97867390       3.24905343       3.58006881
H        -3.72981789       5.05990409       5.40205974
H        -5.43817041       5.23215858       5.67534544
H        -4.32669285       5.24684491       2.85664118
H        -4.32525596       6.68852943       3.84596810
H        -6.61170117       6.97025854       3.62622273
H        -6.94278263       5.25678082       3.81489209
H        -5.79821726       6.46809085       1.25557739
H        -7.51742643       6.21696997       1.52857642
H        -6.42672088       4.83181467       1.47904563
H        -3.53385938      -0.28039868       2.09447230
H        -3.46203861      -1.42788911       3.43270162
H        -2.18821825      -2.99855730       2.08203648
H        -1.97355398      -1.82519954       0.76933997
H        -4.38934926      -1.69685160       0.42625484
H        -4.69309708      -2.56807423       1.91723902
H        -5.14436378      -4.27039764       0.55001259
H        -3.41875591      -4.52407818       0.63330581
H        -3.56756445      -4.62136155      -1.59937631
H        -3.52510189      -2.88081797      -1.55230095
H        -6.26290650      -4.08625196      -1.35345809
H        -5.38177648      -4.48694986      -2.81105195
H        -6.44381659      -2.66753045      -3.59196108
H        -5.07204839      -1.80772701      -2.92280906
H        -7.82682561      -2.25191422      -1.66097356
H        -7.22366815      -0.72371636      -2.28040772
H        -6.52055467      -1.43249306      -0.81274341
