37
strain_lig_165 ligand at complex geometry  charge=0 uhf=0  from=58|O=C(O)CN(CCO)CCN(CC(=O)O)CC(=O)O|nitrate
O         0.42832394      -1.91446451       1.40517726
C         1.13592934      -2.73712409       0.83398202
O         1.04875271      -4.01743027       0.98849809
C         2.23371742      -2.32062169      -0.13883120
N         2.17299833      -0.87424063      -0.44907472
C         3.04775153      -0.13713064       0.49451478
C         2.59881475       1.30387675       0.77847361
O         1.19979626       1.34433149       1.11357856
C         2.55225101      -0.64396702      -1.86033121
C         1.96119984       0.64028548      -2.45766904
N         0.50324045       0.77933313      -2.24452832
C         0.08459054       2.19178584      -2.36148883
C        -1.25899859       2.33877959      -1.63903576
O        -1.43988809       1.65315131      -0.65088004
O        -2.16035165       3.16537501      -2.07367574
C        -0.25564922      -0.04196640      -3.21619250
C        -0.34424269      -1.49451917      -2.74133655
O        -0.20651300      -1.76171695      -1.55665692
O        -0.52922762      -2.44662999      -3.60661732
H         0.37648128      -4.31338985       1.63514686
H         2.09721430      -2.91943943      -1.04563642
H         3.19842847      -2.61390486       0.30489139
H         4.07697607      -0.10012007       0.11099524
H         3.04612708      -0.67202059       1.45047548
H         2.76007108       1.95651583      -0.08871839
H         3.19720585       1.67302974       1.61598535
H         1.07390805       2.02437609       1.79521957
H         2.21115298      -1.49430266      -2.45640226
H         3.64317807      -0.57388237      -1.96131204
H         2.19320361       0.64359599      -3.53156878
H         2.44912708       1.50831630      -2.01380255
H         0.05803569       2.52979476      -3.40662327
H         0.78869076       2.82466280      -1.80462743
H        -1.94972513       3.71214899      -2.84881180
H         0.20469889       0.01504226      -4.21720155
H        -1.29589490       0.31424388      -3.28010072
H        -0.68944386      -2.20553813      -4.53307775
