50
strain_lig_134 ligand at complex geometry  charge=0 uhf=0  from=63|CCCCN(CCCC)C(=O)c1ccc2ccc3cccnc3c2n1|water
C        -3.27811113       4.90561839      -1.50822800
C        -4.50446726       4.56373910      -2.34629270
C        -4.21852378       3.84439598      -3.66365680
C        -3.66430760       2.41831024      -3.57404486
N        -2.36890654       2.28868281      -2.93770846
C        -1.25831206       2.94220160      -3.64441135
C        -0.88979407       2.36829489      -5.02014273
C         0.26650077       3.14644717      -5.66487984
C         0.66611464       2.57532361      -7.02131345
C        -2.07576405       1.58011706      -1.84748421
O        -0.87413989       1.38072903      -1.56440519
C        -3.04150695       0.97239326      -0.83286760
C        -4.41714840       1.18960536      -0.64210892
C        -5.08917938       0.49906186       0.34445488
C        -4.40287321      -0.40665795       1.17289508
C        -5.03136666      -1.19321409       2.18509013
C        -4.31865065      -2.05269617       2.95636167
C        -2.90870942      -2.18728292       2.79846358
C        -2.14796796      -3.06150255       3.59731031
C        -0.79070331      -3.10794043       3.39588514
C        -0.22554691      -2.29050912       2.41893285
N        -0.90603629      -1.47447321       1.63775245
C        -2.24490405      -1.41825391       1.81157973
C        -3.00879485      -0.52625246       0.96035819
N        -2.37890770       0.15352926      -0.00553332
H        -3.58397845       5.50118437      -0.65419332
H        -2.57052452       5.49494808      -2.08401930
H        -2.76786242       4.02318421      -1.13023344
H        -4.99904327       5.49667632      -2.61501535
H        -5.21473058       3.99087761      -1.74802236
H        -3.54843109       4.45686237      -4.26862386
H        -5.15511938       3.75295856      -4.21695883
H        -3.53599023       2.05402109      -4.59878636
H        -4.35423819       1.75239342      -3.06457793
H        -0.39043127       2.88237271      -2.98524881
H        -1.53673667       3.98873506      -3.76833406
H        -1.74280305       2.42718409      -5.69673555
H        -0.60821700       1.31967805      -4.91344646
H         1.13001023       3.14119562      -4.99555286
H        -0.02899608       4.18700640      -5.80353540
H         1.01732525       1.55137932      -6.93778565
H         1.46250079       3.16692419      -7.46081669
H        -0.16935186       2.58664315      -7.71284100
H        -4.96391441       1.89103128      -1.24077459
H        -6.15242762       0.62985993       0.49139705
H        -6.09691984      -1.10251311       2.32232539
H        -4.79290668      -2.66244572       3.71274456
H        -2.63625616      -3.67729626       4.33973968
H        -0.15583219      -3.75627162       3.97179507
H         0.84329841      -2.31564441       2.26847519
