71
strain_lig_077 ligand at complex geometry  charge=0 uhf=0  from=67|CCCCCCCCN(CCCCCCCC)C(=O)COCC(=O)N(C)C|water
C         3.04592310       5.72911587      -2.35907620
C         2.72445003       4.56098741      -3.28328094
C         3.95222147       3.68082982      -3.51018490
C         3.72439088       2.54560278      -4.50952430
C         2.67177917       1.53726621      -4.04977504
C         2.62722209       0.31428621      -4.96324750
C         1.56305836      -0.70444053      -4.53646991
C         0.17468044      -0.19094671      -4.92897329
N        -0.96505432      -0.72989176      -4.17460000
C        -1.96817108      -1.47785126      -4.92823747
C        -1.53964608      -2.87683244      -5.39009359
C        -1.39173225      -3.94689459      -4.29854105
C         0.04464125      -4.13658737      -3.80513865
C         0.23774352      -5.39152584      -2.94261885
C        -0.36173391      -5.28484458      -1.54069645
C        -0.08692748      -6.48718544      -0.63289325
C        -0.74775449      -7.78072404      -1.07843241
C        -1.12373724      -0.32745349      -2.93191236
O        -0.23483426       0.29110275      -2.29111502
C        -2.47002941      -0.54783588      -2.21512498
O        -2.28388338      -0.11340615      -0.87347871
C        -3.28495020       0.73884544      -0.33221724
C        -2.57482617       1.69445286       0.63076847
O        -1.32539075       1.62337945       0.73359346
N        -3.30404412       2.55379632       1.31468280
C        -2.66194972       3.55640161       2.14452891
C        -4.75236910       2.57317077       1.27024193
H         2.16632863       6.34769735      -2.19759281
H         3.82438080       6.35236136      -2.79070376
H         3.39917156       5.36782338      -1.39463597
H         2.37699863       4.94570553      -4.24266398
H         1.91424646       3.96877696      -2.84727336
H         4.27590433       3.26247376      -2.55242154
H         4.76098196       4.31047853      -3.88693646
H         4.67203495       2.02713066      -4.66707764
H         3.42294980       2.96925819      -5.46923982
H         1.70076904       2.03266156      -4.03208187
H         2.89017918       1.21268531      -3.02612371
H         3.60635360      -0.16514067      -4.95043799
H         2.43435502       0.62810806      -5.99043048
H         1.62926307      -0.84896681      -3.45238315
H         1.74511738      -1.65570186      -5.03584065
H         0.00715258      -0.39520834      -5.98476093
H         0.16425054       0.89084716      -4.77491892
H        -2.21795420      -0.89196561      -5.81609439
H        -2.87522124      -1.57977062      -4.33878624
H        -0.61571077      -2.82084565      -5.96034942
H        -2.31632108      -3.20325942      -6.08289342
H        -1.70237920      -4.89997310      -4.72670010
H        -2.06933169      -3.73640515      -3.46915174
H         0.39882103      -3.24342775      -3.27249174
H         0.67823877      -4.25148067      -4.68460854
H         1.30708503      -5.59906390      -2.84511413
H        -0.20999860      -6.23287342      -3.46890421
H        -1.44157334      -5.12971089      -1.61077393
H         0.10022352      -4.42689451      -1.04274592
H        -0.45163522      -6.23696928       0.36725377
H         0.99287301      -6.63103256      -0.56490852
H        -1.81991723      -7.64928441      -1.19196654
H        -0.57909618      -8.55012104      -0.33197037
H        -0.33427192      -8.12906708      -2.01827960
H        -2.77113205      -1.60101885      -2.20818347
H        -3.24283124       0.03647678      -2.72866342
H        -4.04412854       0.13818665       0.19024631
H        -3.79109673       1.32814710      -1.10869636
H        -1.58303546       3.44527721       2.05673145
H        -2.96638843       3.44198836       3.18583419
H        -2.94681677       4.55214910       1.80120973
H        -5.16731907       1.64467545       1.66773353
H        -5.11938489       2.71596698       0.25389810
H        -5.11321392       3.39703705       1.88157251
