75
strain_lig_079 ligand at complex geometry  charge=0 uhf=0  from=63|CCCCCCCCN(CCCCCCCC)C(=O)COCC(=O)N1CCCC1|water
C        -3.22942214      -4.24059238      -3.15344585
C        -4.32702661      -3.24933531      -2.78939037
C        -5.48849280      -3.89147732      -2.03471146
C        -5.14194159      -4.43154952      -0.64681418
C        -4.84391290      -3.38585725       0.43679964
C        -4.76795967      -4.09513454       1.79252631
C        -4.88016137      -3.22496863       3.04892449
C        -3.59417764      -2.57018839       3.57605579
N        -3.19166656      -1.33792674       2.90112297
C        -4.10451810      -0.20335070       3.06149640
C        -3.91827700       0.54510599       4.39274222
C        -2.80870449       1.59598003       4.33628324
C        -3.19081871       2.78040250       3.45499786
C        -2.08851668       3.82915449       3.36257481
C        -0.78609817       3.29736554       2.75511168
C         0.04724929       4.41165249       2.12649153
C        -0.52752889       4.88444631       0.79705105
C        -2.04901056      -1.16380293       2.25151293
O        -1.75860647      -0.11742174       1.63294911
C        -1.05328276      -2.32529648       2.18791800
O         0.19049138      -1.92980057       1.62302313
C         1.26558453      -1.75991944       2.53253624
C         1.59838293      -0.28284045       2.75476186
O         1.02095297       0.58623345       2.07641651
N         2.53432492       0.00757840       3.63799558
C         2.89628136       1.39998954       3.90651843
C         4.15852470       1.29450232       4.75166196
C         3.92497208      -0.00359339       5.51832223
C         3.31585649      -0.91470398       4.45578113
H        -2.48058429      -3.76924769      -3.78950311
H        -3.64270646      -5.08409214      -3.69698242
H        -2.73707311      -4.62272025      -2.26418931
H        -4.71928617      -2.81201515      -3.70928807
H        -3.90541887      -2.44798669      -2.18192641
H        -5.86686488      -4.72226258      -2.63294429
H        -6.30090732      -3.16738188      -1.94041154
H        -4.29786574      -5.11872379      -0.71700772
H        -6.00079946      -5.01533120      -0.31169661
H        -5.64876637      -2.64664579       0.45836077
H        -3.90597114      -2.86333238       0.22455939
H        -3.86573338      -4.70963237       1.83369716
H        -5.61629261      -4.77997953       1.83443176
H        -5.20132994      -3.88176092       3.85963604
H        -5.66902914      -2.48716743       2.90137498
H        -2.80378092      -3.31565168       3.52111910
H        -3.74608068      -2.32121799       4.63162742
H        -5.12316325      -0.58580930       3.00160622
H        -3.92266313       0.48392107       2.23322015
H        -3.69079287      -0.17547672       5.17962473
H        -4.85888348       1.03685027       4.65869967
H        -1.89147727       1.13777014       3.96061640
H        -2.61083175       1.96422619       5.34439139
H        -4.09306939       3.24486943       3.85957103
H        -3.41308403       2.42585982       2.44586973
H        -1.88389022       4.22079911       4.36056620
H        -2.46405833       4.65902780       2.76155340
H        -0.98283259       2.53208515       1.97869576
H        -0.19993727       2.81726940       3.54154151
H         1.05459900       4.02718138       1.96303887
H         0.11069176       5.25254240       2.82034236
H        -0.61223916       4.04583280       0.10322838
H         0.11070291       5.63923386       0.35051504
H        -1.50747259       5.33478720       0.92749265
H        -1.46698358      -3.08802810       1.51742137
H        -0.89351179      -2.74007403       3.18547720
H         2.14791783      -2.24213447       2.09109374
H         1.05153342      -2.25177101       3.48627938
H         2.08214305       1.86698632       4.46778004
H         3.02466388       1.94321539       2.96827235
H         4.28132159       2.15023180       5.40654222
H         5.04694789       1.20921278       4.12631337
H         3.20171977       0.15752433       6.31638360
H         4.82646958      -0.42430141       5.95026971
H         2.69863551      -1.70501914       4.88704716
H         4.08917534      -1.37673979       3.82935250
