77
strain_lig_108 ligand at complex geometry  charge=0 uhf=0  from=63|CCCCCCCCn1cc(-c2cc(CC(=O)O)cc(-c3cn(CCCCCCCC)nn3)n2)nn1|water
C        -4.41125624      -0.50724316      -5.10872031
C        -3.20153491       0.41702417      -5.15984511
C        -2.40934738       0.33715377      -6.46864170
C        -1.91787349      -1.06352550      -6.83971405
C        -1.13878513      -1.70900073      -5.69729146
C        -0.76239996      -3.16162801      -5.96904053
C        -0.27789891      -3.86437192      -4.70009366
C        -1.41882031      -4.11604256      -3.70731107
N        -1.68279179      -2.97982174      -2.85492056
C        -2.86088731      -2.58004100      -2.34490525
C        -2.54237192      -1.49833375      -1.54070836
C        -3.30929361      -0.64148751      -0.64994083
C        -4.70025033      -0.61282915      -0.64044005
C        -5.34234190       0.17252659       0.30779818
C        -6.82278723       0.38075776       0.30342517
C        -6.88274371       1.89272886       0.03687981
O        -6.94295199       2.70000268       0.91268354
O        -6.65756499       2.24539310      -1.23432892
C        -4.56676319       0.90655899       1.20559926
C        -3.18516527       0.85681361       1.08765179
C        -2.30132501       1.59251885       1.97494978
C        -2.53126995       2.41689772       3.06997886
N        -1.30284773       2.71731288       3.52532019
C        -0.92573383       3.50558364       4.66690037
C        -0.03221845       4.68537372       4.27455201
C        -0.75840677       5.76417226       3.46405802
C        -0.72763160       5.49725115       1.96137267
C        -1.35986137       6.62419877       1.14470822
C        -2.83482995       6.89685868       1.45717408
C        -3.73867809       5.66327262       1.43129073
C        -3.73937434       4.94552419       0.08662508
N        -0.37942132       2.14105132       2.78176557
N        -0.95426692       1.46654266       1.85053535
N        -2.56446243       0.09516679       0.17762052
N        -1.19733533      -1.32804755      -1.62209302
N        -0.70732124      -2.21817751      -2.40837189
H        -4.91810926      -0.40350537      -4.14953424
H        -4.12806097      -1.54902591      -5.23385771
H        -5.11768892      -0.24971028      -5.89344588
H        -2.54405035       0.22568020      -4.30545209
H        -3.55974383       1.43928618      -5.05235709
H        -1.54646122       0.99992671      -6.38597416
H        -3.02606573       0.71081787      -7.28591073
H        -1.28812405      -1.00053431      -7.73067522
H        -2.77238118      -1.69370794      -7.09257063
H        -1.76437357      -1.67360135      -4.80791721
H        -0.23851149      -1.12357621      -5.48785463
H         0.01575563      -3.20809153      -6.72903180
H        -1.62681479      -3.69533863      -6.36964977
H         0.49577240      -3.27575981      -4.20554669
H         0.15006338      -4.82855763      -4.96277596
H        -1.18059322      -4.95830147      -3.04945362
H        -2.34057827      -4.34445666      -4.24753761
H        -3.78093332      -3.08019700      -2.57454983
H        -5.26598524      -1.19570898      -1.35225991
H        -7.26069346       0.17527918       1.27916376
H        -7.33002967      -0.22548957      -0.44554645
H        -6.63213387       1.49620771      -1.84798030
H        -5.04097440       1.52554336       1.95628195
H        -3.42459688       2.77231891       3.53435634
H        -0.38521959       2.84537892       5.35218973
H        -1.83234364       3.86531598       5.15309877
H         0.82493655       4.30458743       3.71226639
H         0.33145728       5.10874602       5.20950429
H        -0.27627183       6.72365005       3.65171246
H        -1.78876238       5.85180604       3.81104607
H        -1.22771856       4.55650705       1.72522446
H         0.31453717       5.38853557       1.64740445
H        -1.25638804       6.38241466       0.08448116
H        -0.79786283       7.54368936       1.32210924
H        -3.20549509       7.61873096       0.72694796
H        -2.91832320       7.36796236       2.43712271
H        -4.75779707       5.97874076       1.65528874
H        -3.43717308       4.96417994       2.21362295
H        -3.90672331       5.67098002      -0.70796907
H        -4.53770264       4.20593073       0.05929066
H        -2.78794606       4.43834213      -0.08373792
