68
strain_lig_118 ligand at complex geometry  charge=0 uhf=0  from=63|CCCCCCOCCC(C(=O)N(C)CCCC)C(=O)N(C)CCCC|nitrate
C         1.68118224      -5.89523155       4.67755158
C         2.94351536      -6.32695569       3.94241506
C         2.89502604      -6.16455910       2.42443358
C         2.70451246      -4.72023245       1.97158900
C         1.23023864      -4.32010379       1.85030339
C         1.22075679      -2.85352379       1.45438593
O         0.00211518      -2.21365893       1.07140969
C        -1.09792949      -2.46904804       1.93558698
C        -1.00596097      -1.92595278       3.36630123
C        -1.25311555      -0.41043659       3.61479617
C         0.00892824       0.41789327       3.39589697
O         0.44189832       0.55181841       2.23636794
N         0.61800557       0.99612293       4.43272848
C         1.83154234       1.74391155       4.14591611
C         0.16913974       1.09254848       5.81886795
C         1.13537813       0.48656436       6.84146773
C         1.33287858      -1.02516401       6.72791964
C         2.24893888      -1.45740051       5.59038669
C        -2.29149003       0.17890710       2.66923648
O        -2.03483164       0.25488098       1.45551208
N        -3.44683094       0.63340760       3.14793034
C        -4.43007929       1.04190015       2.15862513
C        -3.80751248       0.68560305       4.55273483
C        -4.19996466      -0.66309961       5.15529670
C        -4.49880370      -0.46275612       6.63614097
C        -4.85364057      -1.76310432       7.32960601
H         1.72320915      -6.22953487       5.70999291
H         1.56936026      -4.81249571       4.69360492
H         0.79848290      -6.33854900       4.22310125
H         3.79546387      -5.76855238       4.33633394
H         3.11382896      -7.38144241       4.15283703
H         3.83440521      -6.54442419       2.01843598
H         2.08797897      -6.76736998       2.00779729
H         3.20802577      -4.05212780       2.67421670
H         3.17874159      -4.56766280       0.99856333
H         0.73707416      -4.93902785       1.09990620
H         0.73439161      -4.47873604       2.80259254
H         1.69681132      -2.28929076       2.26172149
H         1.83968536      -2.77033280       0.56501702
H        -1.94952775      -2.01583713       1.42631116
H        -1.24464663      -3.55381373       2.00109894
H        -1.76344983      -2.46461999       3.94303866
H        -0.03752231      -2.18336147       3.79572402
H        -1.58524316      -0.32484807       4.64175273
H         2.06520172       1.61778183       3.09069579
H         1.67364470       2.80059653       4.36468353
H         2.65383692       1.35798251       4.74621869
H         0.04442196       2.16223563       6.03057570
H        -0.80307367       0.62219724       5.96013751
H         2.09699740       0.99498162       6.79107750
H         0.70930813       0.70823854       7.82137152
H         1.77849774      -1.36650812       7.66105492
H         0.36370416      -1.51894226       6.63310632
H         3.22066237      -0.97794606       5.67637917
H         2.40912663      -2.53109782       5.63913316
H         1.82922932      -1.21366485       4.61758114
H        -4.69055620       0.18703189       1.52836404
H        -5.32407033       1.40985285       2.65211481
H        -4.00197518       1.82858719       1.53201418
H        -2.98641600       1.13304710       5.12538820
H        -4.66401394       1.35538995       4.63245963
H        -5.07446577      -1.05810598       4.63902538
H        -3.40073483      -1.39639788       5.03927658
H        -3.62316495      -0.01831480       7.11222425
H        -5.31902970       0.24521813       6.74030202
H        -4.03443210      -2.47273139       7.25998371
H        -5.05755673      -1.57856181       8.37796970
H        -5.73662961      -2.20672901       6.88166142
