50
strain_lig_176 ligand at complex geometry  charge=0 uhf=0  from=68|c1ccc2c(c1)OCCOCCOc1ccccc1OCCOCCO2|nitrate
C        -2.97725707       3.68559060       2.68520833
C        -2.97722664       4.29369121       1.44537560
C        -2.13386277       3.85888389       0.42960438
C        -1.28715592       2.78464165       0.65252758
C        -1.30261142       2.15580794       1.90553914
C        -2.12939688       2.61349461       2.91851591
O        -0.49920111       1.01178537       2.10217845
C         0.57636026       1.18217527       3.03916687
C         1.85812150       1.37173259       2.22107387
O         1.97289108       0.26902164       1.30594784
C         2.50912666      -0.92865303       1.90414599
C         1.42538622      -2.00978236       1.83408153
O         0.95460792      -2.05025212       0.48437823
C         1.76237550      -2.64366515      -0.50036386
C         2.52909780      -3.77531959      -0.28394664
C         3.22952959      -4.35235774      -1.33066144
C         3.15481300      -3.79810101      -2.59586280
C         2.40105019      -2.65421000      -2.81827767
C         1.70566510      -2.05999720      -1.77716294
O         0.97727316      -0.85233216      -1.88290419
C         0.36445450      -0.53470410      -3.14726358
C        -1.15950414      -0.52521389      -2.96058767
O        -1.52868842       0.37147983      -1.89593642
C        -1.66825623       1.76134721      -2.24744731
C        -0.49916066       2.56323909      -1.65574123
O        -0.36798339       2.22919646      -0.26778732
H        -3.63366282       4.04697870       3.46103521
H        -3.64249146       5.12428746       1.26360277
H        -2.17297132       4.37358967      -0.51807530
H        -2.11284278       2.10768618       3.86768517
H         0.64687903       0.26376412       3.63720667
H         0.37757366       2.02229038       3.70539347
H         2.73861242       1.45258113       2.86576486
H         1.80655147       2.26950631       1.59415027
H         2.84331715      -0.73606230       2.92579372
H         3.38122448      -1.24502656       1.31745846
H         0.53436512      -1.72955183       2.42325940
H         1.79001262      -2.98026032       2.17960457
H         2.57628139      -4.21656803       0.69694728
H         3.82974900      -5.23144391      -1.16608292
H         3.69927976      -4.25524957      -3.40564460
H         2.37951825      -2.23173490      -3.80890835
H         0.64060620      -1.26022355      -3.91221945
H         0.72001102       0.45497151      -3.46615412
H        -1.50519425      -1.52188599      -2.64637787
H        -1.67065466      -0.26212923      -3.89258883
H        -2.61183294       2.10757441      -1.80297036
H        -1.72611331       1.88394251      -3.33057203
H        -0.63654414       3.63566541      -1.82256315
H         0.46429694       2.27175096      -2.09716760
