115
strain_lig_120 ligand at complex geometry  charge=0 uhf=0  from=63|CCCCCCOc1cc(CNC(=O)COCC(=O)N(CCCC)CCCC)cc(CNC(=O)COCC(=O)N(CCCC)CCCC)c1|nitrate
C         7.11398988      -3.56631732       0.83099106
C         6.53317745      -4.77345776       1.55863242
C         5.75831700      -5.74529693       0.66233066
C         4.33745907      -5.27630618       0.32702075
C         4.23774685      -4.41847098      -0.93958081
C         4.24540017      -5.22029615      -2.24569953
O         4.36609347      -4.34670049      -3.35979538
C         3.31447336      -3.61913677      -3.77892749
C         1.98871407      -3.80866268      -3.38494115
C         0.98279123      -2.94703713      -3.81947807
C        -0.42860526      -3.26398555      -3.37586479
N        -1.35122690      -2.20618349      -2.98225615
C        -1.46036756      -1.82127370      -1.72283287
O        -0.55090308      -2.04313715      -0.90974713
C        -2.72492375      -1.11356246      -1.21158957
O        -2.32152818      -0.16893795      -0.21772250
C        -3.25168592       0.15533663       0.82575496
C        -2.42630952       0.98821266       1.82850317
O        -1.21908512       1.07853213       1.56633727
N        -2.91283225       1.53196867       2.94747087
C        -4.31043176       1.84933495       3.20241488
C        -5.10118995       0.87384304       4.08699447
C        -4.63480117       0.82124734       5.54272874
C        -5.69184414       0.23436356       6.46859923
C        -1.92810666       1.85676051       4.00365477
C        -1.86892830       3.29106087       4.53777595
C        -1.08900882       4.26653264       3.65286785
C         0.41224324       4.15404351       3.89377340
C         1.29730720      -1.96316594      -4.74974726
C         2.60085727      -1.80407579      -5.23304865
C         2.90310217      -0.88329913      -6.40461569
N         3.13670022       0.52163219      -6.09301891
C         4.36915305       1.09439685      -6.24260292
O         5.36509268       0.46192210      -6.46455669
C         4.42554994       2.62072552      -6.00700072
O         4.82331018       2.76251186      -4.65397240
C         4.86799462       4.07391434      -4.11485550
C         5.31635143       3.82831566      -2.65896458
O         4.46986982       3.55688800      -1.81690757
N         6.64815347       3.80775359      -2.42635732
C         7.42421910       4.96759262      -2.86875192
C         6.90985348       6.19824535      -2.10029128
C         7.47128931       7.53253715      -2.56831097
C         6.79007849       8.67359729      -1.82545029
C         7.13664041       3.17858286      -1.19549508
C         6.69087165       1.72613761      -0.98962775
C         7.29970353       0.69696090      -1.94525870
C         6.64909111       0.68304354      -3.32130969
C         3.59959348      -2.59517708      -4.69394677
H         7.78801191      -3.02662330       1.49143708
H         6.33362255      -2.87800750       0.51695823
H         7.68180129      -3.88452725      -0.04036827
H         5.88413640      -4.43637199       2.37202833
H         7.35579844      -5.32408983       2.01088503
H         5.69121762      -6.70555971       1.17602228
H         6.31140058      -5.91057541      -0.26111156
H         3.97510359      -4.69826660       1.18561675
H         3.67086674      -6.13577668       0.21266579
H         5.06659478      -3.70943764      -0.96748240
H         3.30776936      -3.85024030      -0.90629537
H         3.35022315      -5.84319830      -2.33324248
H         5.12900216      -5.85531397      -2.29597426
H         1.70865534      -4.65951932      -2.78515001
H        -0.37129501      -3.98965938      -2.56292920
H        -0.92291561      -3.75370961      -4.20601347
H        -2.12593275      -2.07661564      -3.61570906
H        -3.34430681      -1.92086982      -0.80418538
H        -3.29158172      -0.62522260      -2.00797644
H        -3.57106507      -0.76037671       1.34378491
H        -4.11262231       0.69834520       0.42076277
H        -4.81779953       1.95350957       2.24107967
H        -4.31492336       2.84141763       3.66576385
H        -5.07617639      -0.12561748       3.65193857
H        -6.13999355       1.21188868       4.06258130
H        -4.38945350       1.82783782       5.88168317
H        -3.72982615       0.21741247       5.62081674
H        -6.58014729       0.85794646       6.48349766
H        -5.30144127       0.18894423       7.48087355
H        -5.98307691      -0.76565681       6.15580446
H        -0.94616609       1.60417174       3.59563257
H        -2.15141057       1.19113763       4.84197435
H        -1.35575097       3.22647984       5.50009389
H        -2.86420757       3.68869716       4.73178693
H        -1.39788928       5.28847864       3.87753117
H        -1.31272711       4.06689233       2.60169212
H         0.64061768       4.33379697       4.94327418
H         0.95080932       4.88528069       3.29380818
H         0.76424258       3.16156489       3.62639962
H         0.50026461      -1.38938344      -5.18595262
H         2.07010209      -0.94518838      -7.11079012
H         3.81198732      -1.26003774      -6.87830351
H         2.33523600       1.13213384      -6.09896397
H         3.47319424       3.13543800      -6.19456073
H         5.17506369       3.05189811      -6.68103692
H         3.86828958       4.53229718      -4.12986495
H         5.54711184       4.70544718      -4.68734026
H         7.30594962       5.12042881      -3.94316988
H         8.48171199       4.77805944      -2.67318817
H         7.12388993       6.07470083      -1.03592276
H         5.82004187       6.22320443      -2.21404067
H         7.30637024       7.64086867      -3.63986588
H         8.54441904       7.55927313      -2.39037537
H         5.71718543       8.66549260      -2.00575803
H         7.18426427       9.62936974      -2.14949384
H         6.95262933       8.58153331      -0.75547220
H         6.82898300       3.76856385      -0.32049837
H         8.22762743       3.19686460      -1.24734448
H         5.60412193       1.66433290      -1.04230670
H         6.99444942       1.45870412       0.02559846
H         7.19043619      -0.29147181      -1.49222772
H         8.36880066       0.88190385      -2.04568526
H         5.56320525       0.64269945      -3.23469872
H         6.98211204      -0.17215194      -3.90411188
H         6.90544064       1.57818151      -3.87543782
H         4.62085033      -2.47026926      -5.00884712
