168
strain_lig_038 ligand at complex geometry  charge=0 uhf=0  from=60|CCCCCCCCCCCCN(CCCCCCCCCCCC)C(=O)COCCOCC(=O)N(CCCCCCCCCCCC)CCCCCCCCCCCC|water
C        -5.86606707      -7.73290194      -1.61140603
C        -5.02977645      -8.64814716      -0.72620589
C        -3.60723719      -8.82679593      -1.25477123
C        -2.79648016      -9.79371565      -0.39081880
C        -1.37890534     -10.03827357      -0.91566705
C        -0.41502813      -8.86240173      -0.72908789
C         0.07469308      -8.72846004       0.71302598
C         0.76353764      -7.39697086       1.00883295
C         2.04998546      -7.18074951       0.21191192
C         2.65627216      -5.80312068       0.49793609
C         3.77082130      -5.44547198      -0.49151004
C         3.94276893      -3.92995431      -0.70039605
N         2.69049891      -3.26638203      -1.05018912
C         2.02714348      -3.84569976      -2.23031413
C         1.49932472      -2.83426704      -3.26031814
C        -0.02129328      -2.64473886      -3.23136394
C        -0.80168131      -3.90522126      -3.63958689
C        -2.14062662      -4.06502046      -2.90445973
C        -1.96240420      -4.65555114      -1.50024248
C        -3.23863365      -4.66409451      -0.65212046
C        -2.98408031      -5.28537968       0.72328059
C        -4.20969582      -5.27207065       1.63806079
C        -4.43550956      -3.94114408       2.35377737
C        -5.62217779      -4.02482916       3.31453570
C        -5.85095092      -2.73089236       4.08584377
C         2.09234635      -2.36967862      -0.29743240
O         0.91249614      -1.97982688      -0.50020478
C         2.82493700      -1.70194526       0.88167501
O         2.01122612      -0.62144478       1.36830459
C         1.52365848      -0.79984411       2.70383289
C         0.36536705      -1.80544112       2.76779884
O        -0.78130903      -1.35330468       2.03510644
C        -1.83178967      -0.77814532       2.81602981
C        -1.92177920       0.72952719       2.54025508
O        -1.15992929       1.19612739       1.65681458
N        -2.80144805       1.45022255       3.20355087
C        -2.95892856       2.87941436       2.92970272
C        -3.69331781       3.23746580       1.63018255
C        -5.12256189       2.68978093       1.49757679
C        -5.17758858       1.29660776       0.86830323
C        -6.54947995       0.62951223       0.97126510
C        -6.52516768      -0.75937533       0.33377335
C        -7.81620524      -1.53923237       0.56085123
C        -7.75099249      -2.94639720      -0.02683712
C        -8.98677174      -3.76347656       0.33840772
C        -8.91069354      -5.19658796      -0.18020758
C       -10.14254517      -6.00860063       0.21234121
C       -10.06818754      -7.44062692      -0.29827350
C        -3.55307254       0.92746164       4.34022932
C        -2.73564810       0.95374665       5.64053405
C        -2.34695783       2.36251074       6.09634995
C        -1.39577584       2.34632706       7.29692666
C         0.01640439       1.84554095       6.97974177
C         0.78500265       2.73395519       5.99881697
C         2.22395965       2.24720015       5.82644205
C         3.17262309       3.24422265       5.15585308
C         3.19062668       3.23513862       3.62589498
C         1.99080829       3.86876765       2.91271303
C         1.70778899       5.32316615       3.29227425
C         0.56274429       5.88989710       2.45790198
H        -6.87282671      -7.63505441      -1.21573585
H        -5.93338076      -8.13603204      -2.61811768
H        -5.42714670      -6.73798607      -1.67458521
H        -5.51260353      -9.62448030      -0.67460074
H        -4.99163081      -8.24548080       0.28961353
H        -3.11190426      -7.85178877      -1.29128398
H        -3.65091151      -9.21020833      -2.27624317
H        -3.32195385     -10.75032841      -0.36376845
H        -2.75948499      -9.41850346       0.63458035
H        -1.44725106     -10.28112203      -1.97803845
H        -0.95857493     -10.90902932      -0.41081059
H        -0.90743967      -7.93687039      -1.03806487
H         0.43898271      -9.01734505      -1.38914551
H         0.76038809      -9.54302345       0.94204202
H        -0.77705787      -8.81498548       1.38740578
H         1.00193812      -7.34484199       2.07348019
H         0.06455065      -6.58301789       0.78497612
H         1.82938210      -7.25891491      -0.85399960
H         2.77613647      -7.95728267       0.45562568
H         3.04067533      -5.79044664       1.51860652
H         1.85066032      -5.06068374       0.44399050
H         3.57480630      -5.94945324      -1.43829044
H         4.72684423      -5.82430643      -0.13174640
H         4.64916820      -3.76781225      -1.51614995
H         4.36371407      -3.50277083       0.20560358
H         1.22766142      -4.50814734      -1.88629340
H         2.78262657      -4.45582799      -2.72134902
H         1.77385280      -3.18903080      -4.25576791
H         1.99377501      -1.87351931      -3.09589147
H        -0.27793449      -1.83995426      -3.92829804
H        -0.30523809      -2.33313489      -2.22309597
H        -0.21155931      -4.80273848      -3.44807902
H        -0.97946211      -3.86903245      -4.71360737
H        -2.78050240      -4.73529354      -3.47904119
H        -2.66974149      -3.10508539      -2.86294572
H        -1.16236174      -4.12512381      -0.96536169
H        -1.63103814      -5.68972760      -1.61389884
H        -3.99867988      -5.25729765      -1.16265197
H        -3.64814538      -3.65400121      -0.54279078
H        -2.15607693      -4.76963191       1.22323150
H        -2.67604075      -6.31991169       0.57625946
H        -4.09198321      -6.04522682       2.39771047
H        -5.09586195      -5.52224096       1.05514960
H        -4.61935259      -3.14719241       1.62153048
H        -3.53400451      -3.67552141       2.91872102
H        -5.44815730      -4.83520032       4.02366989
H        -6.52120265      -4.26912651       2.74835949
H        -4.98772671      -2.49088154       4.70579389
H        -6.71262272      -2.83763064       4.73810788
H        -6.04091863      -1.90223321       3.40593331
H         3.77634808      -1.27272120       0.54560345
H         3.01913893      -2.43504126       1.67040462
H         1.18497579       0.19596890       3.02897738
H         2.33866568      -1.13076996       3.35651900
H         0.11046746      -1.99514401       3.81670783
H         0.66561360      -2.75224146       2.29902870
H        -1.67689068      -0.96966339       3.88223745
H        -2.77111193      -1.26487516       2.51728361
H        -1.96573029       3.33737708       2.90101672
H        -3.50868941       3.30841045       3.76429746
H        -3.08398957       2.93284188       0.77573673
H        -3.73861974       4.32781030       1.61749738
H        -5.70483342       3.37013081       0.87255793
H        -5.59957503       2.67103662       2.47802870
H        -4.43493509       0.64973397       1.34894542
H        -4.93220907       1.38050877      -0.19568665
H        -7.29567706       1.24811907       0.47332643
H        -6.84025318       0.54611718       2.01941845
H        -5.68872368      -1.32871514       0.75580452
H        -6.34962364      -0.66521394      -0.74083153
H        -8.64921007      -0.99962855       0.11202380
H        -8.00920675      -1.61043489       1.63206211
H        -6.86133143      -3.45954842       0.34749701
H        -7.66328855      -2.89009378      -1.11368601
H        -9.87292393      -3.27892079      -0.07255653
H        -9.09912638      -3.78257797       1.42455471
H        -8.01672038      -5.68227183       0.22143694
H        -8.81762757      -5.18438670      -1.26839972
H       -11.03299034      -5.52604739      -0.19228285
H       -10.23900732      -6.01577732       1.29966116
H        -9.99251769      -7.45645440      -1.38264513
H       -10.95857492      -7.99140323      -0.01005455
H        -9.20237781      -7.95294773       0.11559098
H        -3.89194995      -0.08628679       4.12787832
H        -4.44247706       1.54145505       4.46979979
H        -1.82897761       0.35869091       5.52624032
H        -3.33848922       0.48036154       6.41820072
H        -3.25031942       2.90847035       6.37315613
H        -1.86037548       2.90789430       5.28715953
H        -1.82650122       1.73021238       8.08833364
H        -1.31963206       3.36347742       7.68308665
H        -0.01974166       0.82120626       6.59743675
H         0.57005375       1.81430073       7.91873865
H         0.79516293       3.75208958       6.38898204
H         0.27580644       2.75064880       5.03180264
H         2.22884034       1.30181648       5.27369444
H         2.62046331       2.03715541       6.82042885
H         4.18595898       3.00457315       5.47749453
H         2.96152650       4.24961149       5.51350414
H         3.29174151       2.19785125       3.28173346
H         4.08382354       3.77260581       3.30213662
H         1.08709856       3.27177212       3.08850457
H         2.21688350       3.86945098       1.83731064
H         2.60725599       5.91769134       3.12643029
H         1.44741999       5.39531240       4.34723005
H         0.77238162       5.79985883       1.39232655
H         0.41931316       6.94195232       2.68376854
H        -0.37065034       5.36911431       2.67396693
