89
strain_lig_057 ligand at complex geometry  charge=0 uhf=0  from=66|CCCCCCCCN(CC(C)C)C(=O)COCC(=O)N(CCCCCCCC)CC(C)C|nitrate
C        -3.37263573      -3.85541949       2.73898081
C        -3.12531499      -2.48218699       3.35152541
C        -4.36247123      -1.88660524       4.01812135
C        -4.14910189      -0.43277168       4.44653551
C        -4.05393280       0.52779412       3.25352837
C        -4.53207881       1.94153929       3.60277648
C        -3.60094667       2.76250302       4.50138104
C        -2.49185145       3.53158143       3.76288136
N        -1.39692849       2.67603048       3.31732186
C        -0.57434626       2.13181749       4.40163602
C         0.85369209       2.67948119       4.58907951
C         1.83967309       2.18771710       3.53110813
C         0.87814224       4.20238891       4.67635419
C        -1.26523995       2.14128637       2.11411136
O        -0.37015107       1.31112024       1.84582786
C        -2.19564460       2.53666552       0.95565580
O        -2.10499073       1.48204121      -0.00849826
C        -2.45757043       1.85704057      -1.33813081
C        -1.17079120       1.86446466      -2.19109142
O        -0.11109255       1.51635770      -1.62083646
N        -1.23126364       2.24870746      -3.45614709
C        -2.47020432       2.59293196      -4.14613449
C        -2.76548956       1.81244644      -5.43644818
C        -2.93538675       0.30209454      -5.26228016
C        -1.62479064      -0.46503533      -5.09705257
C        -1.86231266      -1.97164050      -5.07277101
C        -0.56202522      -2.73623711      -4.84289635
C        -0.78057302      -4.24120058      -4.68903903
C        -1.58747263      -4.58794763      -3.44110368
C        -0.00788537       2.26871711      -4.24831666
C         0.77078581       3.59328128      -4.26659469
C        -0.01033882       4.77820163      -4.83108554
C         1.29789223       3.94726740      -2.88203998
H        -2.47207639      -4.19981402       2.23281050
H        -4.17899590      -3.81253136       2.01070828
H        -3.63787678      -4.58284041       3.50189808
H        -2.78176191      -1.80962623       2.56451837
H        -2.33702702      -2.56364628       4.10194199
H        -4.61974192      -2.48149645       4.89632131
H        -5.21223815      -1.93494480       3.33468104
H        -3.24475111      -0.36593990       5.05588498
H        -4.99241830      -0.13272836       5.07215078
H        -4.70397929       0.15215461       2.46130626
H        -3.03632444       0.54069098       2.85620506
H        -5.48771472       1.83363516       4.11786141
H        -4.73717381       2.51834801       2.69618190
H        -3.16306479       2.10839441       5.25307936
H        -4.19601761       3.50936813       5.03088292
H        -2.06599520       4.27146979       4.44702997
H        -2.92856153       4.07490224       2.92579870
H        -0.50938201       1.06151044       4.22581088
H        -1.11824532       2.31384856       5.32660218
H         1.17360229       2.27224979       5.55503936
H         1.50319579       2.45998761       2.53681121
H         1.94355176       1.10584388       3.56237035
H         2.82151405       2.62311125       3.70671421
H         0.59049289       4.63967084       3.72250237
H         1.88155659       4.54537750       4.91932882
H         0.20496499       4.56154194       5.45173115
H        -1.83995097       3.48711147       0.52997427
H        -3.23934467       2.62868461       1.27423341
H        -2.93570316       2.84267014      -1.33788106
H        -3.16880450       1.10816186      -1.71173510
H        -2.43410926       3.65611380      -4.39856874
H        -3.31234403       2.42750459      -3.47936557
H        -2.01660732       2.01097252      -6.20342800
H        -3.70902845       2.22300512      -5.80146373
H        -3.44847172      -0.08594801      -6.14540903
H        -3.58220909       0.11233114      -4.40371194
H        -1.13772665      -0.18369277      -4.16071152
H        -0.95431233      -0.22047480      -5.92505104
H        -2.31137358      -2.29073643      -6.01422734
H        -2.55922695      -2.19642772      -4.26526369
H        -0.08993556      -2.34412188      -3.93553218
H         0.12239392      -2.55709022      -5.67581413
H         0.19125018      -4.74202470      -4.64593611
H        -1.29945547      -4.62451656      -5.56849109
H        -1.17122719      -4.09639701      -2.56094130
H        -1.58792659      -5.66153314      -3.26942424
H        -2.62031604      -4.26836966      -3.54448325
H        -0.26987011       2.00530390      -5.26828570
H         0.64562432       1.49449438      -3.84052302
H         1.62465667       3.40928444      -4.92922001
H        -0.81939461       5.06767974      -4.16288964
H        -0.41508660       4.55567172      -5.81527013
H         0.65151275       5.63775780      -4.92095022
H         0.50717016       4.41673992      -2.29766763
H         2.12754625       4.64217029      -2.98313108
H         1.63863115       3.06301900      -2.34893550
