46
strain_lig_164 ligand at complex geometry  charge=0 uhf=0  from=66|O=C(O)CN(CC(=O)O)C1CCCCC1N(CC(=O)O)CC(=O)O|nitrate
O        -0.14372717      -1.68340516       0.59372612
C        -0.73788111      -1.39063760       1.63323899
O        -0.04549720      -0.85655693       2.59707055
C        -2.24990063      -1.35367545       1.54736310
N        -2.49234417      -0.45330126       0.38121715
C        -3.08087252       0.85117424       0.80217933
C        -1.94470415       1.80264925       0.46067811
O        -0.87966371       1.69112826       1.06170154
O        -1.92427727       2.44473829      -0.69930069
C        -3.09348257      -1.05587682      -0.86492340
C        -3.77502150      -2.42750568      -0.66450784
C        -2.87118535      -3.66128074      -0.71611557
C        -1.88518897      -3.59689807      -1.89311184
C        -2.25568820      -2.46944798      -2.84881260
C        -2.19133239      -1.08116257      -2.20056062
N        -0.77658192      -0.44342102      -2.19521728
C         0.38579757      -1.35222288      -2.58388770
C         1.50550624      -1.40514386      -1.52495522
O         1.71781068      -0.38000844      -0.86377269
O         2.19176077      -2.46017556      -1.30724833
C        -0.84464003       0.69928315      -3.16889918
C         0.19937480       1.85763556      -3.17159179
O         0.34877872       2.50148028      -4.14531835
O         0.85802802       2.17623490      -2.02883216
H        -0.41878336      -0.84831247       3.50216862
H        -2.72813629      -0.99577916       2.46059047
H        -2.63652301      -2.36034049       1.35360353
H        -3.28964440       0.87192502       1.87768580
H        -4.01483731       1.08063955       0.28579527
H        -2.73632146       2.92334852      -0.97653166
H        -3.92760051      -0.39523884      -1.11733473
H        -4.49923919      -2.52028221      -1.47618695
H        -4.38873133      -2.42238710       0.23787807
H        -3.52259494      -4.53167818      -0.79829059
H        -2.29941830      -3.81692757       0.19833619
H        -1.89893424      -4.53950502      -2.43666811
H        -0.88339328      -3.46534518      -1.47901414
H        -3.27902555      -2.63475219      -3.19363006
H        -1.66725782      -2.49245838      -3.76604070
H        -2.76288750      -0.46385796      -2.89439969
H         0.87159981      -0.96160001      -3.49362597
H         0.05453709      -2.36847923      -2.81098607
H         2.06912694      -3.29302586      -1.80619701
H        -1.80253025       1.22470336      -3.04212104
H        -0.84172714       0.30821228      -4.19868827
H         0.74066333       1.73228739      -1.17450816
