113
strain_lig_033 ligand at complex geometry  charge=0 uhf=0  from=59|CCCCCCCCCCCCN(CCCC)C(=O)COCC(=O)N(CCCC)CCCCCCCCCCCC|water
C        -3.27966173       1.06279031      -2.22353571
C        -4.39215571       1.99367080      -2.69934750
C        -4.83474541       3.08042031      -1.70905397
C        -5.22264064       2.61828502      -0.29296851
C        -6.70207244       2.70300361       0.09478834
C        -6.90356185       2.61786001       1.61588141
C        -6.46593221       1.26847554       2.20732968
C        -5.74999952       1.36945759       3.55779050
C        -5.18024181       0.00682214       3.98572269
C        -3.84947672       0.07048278       4.74982768
C        -3.13819384      -1.29097229       4.71630022
C        -1.59438740      -1.20919077       4.80568654
N        -0.94041041      -1.88112798       3.68318963
C        -1.24849705      -3.30137423       3.48636377
C        -0.34958013      -4.20193539       4.34517328
C         1.07459794      -4.38796441       3.82488298
C         1.80426015      -5.48010415       4.59675901
C        -0.01799649      -1.36370995       2.86997340
O         0.24281092      -1.86091574       1.75603057
C         0.84522151      -0.15662066       3.28312306
O         1.57281561       0.29428848       2.13981630
C         2.95551943      -0.07104621       2.08920181
C         3.45618262      -0.08388993       0.64739473
O         2.74703236      -0.71499146      -0.15852533
N         4.63957093       0.42030757       0.29869338
C         5.21279442      -0.13788232      -0.92991991
C         5.66075974      -1.59015780      -0.68797821
C         6.31129106      -1.81523464       0.67909566
C         6.26924595      -3.27515582       1.11076719
C         5.58670279       1.18457389       1.11287143
C         5.13113451       2.56101437       1.60351690
C         6.34043641       3.49238160       1.86411755
C         6.21038948       4.39761970       3.11389938
C         7.06553420       3.86780150       4.28109180
C         6.68075997       4.41676300       5.66766503
C         7.21115847       3.55996324       6.84294190
C         6.34683574       3.57758513       8.13253986
C         5.73088301       2.24871004       8.62382414
C         6.68837102       1.18221992       9.16495794
C         5.93670310      -0.04800410       9.70492741
C         5.47707725      -1.01769274       8.61534672
H        -2.90152674       0.48035197      -3.06368418
H        -3.63817404       0.35138106      -1.48412358
H        -2.45558678       1.63537025      -1.79368536
H        -5.24146625       1.39214060      -3.00651034
H        -4.03906339       2.50224363      -3.59585787
H        -5.67652807       3.61038752      -2.15594378
H        -4.02147631       3.80904063      -1.62309405
H        -4.68956281       3.25077347       0.41883522
H        -4.88393038       1.59012354      -0.15822529
H        -7.25747048       1.89764476      -0.38964757
H        -7.11325207       3.65500165      -0.25060495
H        -7.95613993       2.78953686       1.82713698
H        -6.35656016       3.42581262       2.10809497
H        -5.76746511       0.79222176       1.51469130
H        -7.31388629       0.58946527       2.29766557
H        -6.43199093       1.75438894       4.31398501
H        -4.93302264       2.08647607       3.44654128
H        -5.01061769      -0.57495529       3.07478027
H        -5.91386653      -0.53251856       4.58454908
H        -4.01928248       0.38683373       5.77813881
H        -3.20385629       0.82204691       4.28578596
H        -3.42329155      -1.77397614       3.77923339
H        -3.52161480      -1.92163649       5.51723503
H        -1.24632039      -1.64788496       5.74281052
H        -1.29606461      -0.16300786       4.80601800
H        -1.10130210      -3.53440498       2.42995717
H        -2.29135383      -3.48197175       3.74773812
H        -0.84287004      -5.17313147       4.39436900
H        -0.30151755      -3.80983262       5.36131509
H         1.63607228      -3.45621871       3.91812302
H         1.04782266      -4.64425867       2.76669967
H         1.89731581      -5.21271553       5.64480861
H         2.80060527      -5.63385225       4.19351328
H         1.26736667      -6.42148249       4.53470284
H         1.52949114      -0.48673970       4.07201937
H         0.25507146       0.68126347       3.68010750
H         3.08418873      -1.10844059       2.42581578
H         3.53274966       0.60122925       2.71450901
H         6.05467391       0.47869515      -1.25239374
H         4.45051446      -0.12804902      -1.71093638
H         6.35353316      -1.87414098      -1.48032841
H         4.78685194      -2.24019746      -0.76035039
H         5.75333519      -1.27770738       1.44421444
H         7.33388879      -1.43689848       0.67596732
H         5.23054771      -3.58299067       1.22364887
H         6.76084956      -3.39068835       2.07498892
H         6.74565847      -3.93097608       0.38967856
H         6.46478435       1.31832277       0.47997378
H         5.89490923       0.59432153       1.97791201
H         4.57252893       2.43771066       2.52642599
H         4.45789857       3.00579791       0.87077998
H         6.49826763       4.10442352       0.97428636
H         7.24477682       2.89044605       1.98870593
H         5.16121128       4.46698213       3.41069066
H         6.52500849       5.41332043       2.87363770
H         8.11690383       4.07080707       4.06830953
H         6.97100222       2.78562545       4.29022744
H         5.59445046       4.46699588       5.72607076
H         7.04300545       5.44068718       5.76429836
H         8.21239915       3.91616136       7.08976877
H         7.30810115       2.53380545       6.49527802
H         5.51794377       4.27472933       7.98489414
H         6.93040295       3.96793741       8.96834424
H         5.12175556       1.79009397       7.84614726
H         5.03773214       2.50644866       9.43120420
H         7.28414798       1.60725530       9.97281686
H         7.37910037       0.84241926       8.39189897
H         5.06686219       0.27671042      10.28238028
H         6.58717177      -0.60117942      10.38583986
H         4.81269717      -0.52174485       7.90973951
H         4.93325293      -1.85802470       9.04876447
H         6.33750037      -1.41332177       8.07527340
