124
strain_lig_070 ligand at complex geometry  charge=0 uhf=0  from=63|CCCCCCCCN(CCCCCCCC)C(=O)CN(CC(=O)N(CCCCCCCC)CCCCCCCC)c1ccccc1|nitrate
C         5.33762621      -7.67179286      -0.47582253
C         6.58111847      -7.89800931       0.37968220
C         6.55825477      -7.22717257       1.75697648
C         5.53369587      -7.77793734       2.75562793
C         4.12944720      -7.18390438       2.64301334
C         4.09953646      -5.70149977       3.00894033
C         2.72120343      -5.07341092       2.80474914
C         2.34671998      -5.13568621       1.31893895
N         1.17928394      -4.34759915       0.96330862
C        -0.05317165      -5.01531341       0.55826507
C        -1.21056581      -4.91423506       1.54171883
C        -0.88718420      -5.46904309       2.92375558
C        -2.16884939      -5.78224433       3.69113214
C        -1.93415456      -6.02379648       5.18030360
C        -0.95456580      -7.15428272       5.48555219
C        -1.40623554      -8.51945805       4.97323302
C        -0.44691766      -9.61517181       5.42333776
C         1.20390917      -3.02481158       0.87040946
O         0.15859868      -2.37001230       0.72014394
C         2.55279295      -2.31094943       0.79955796
N         2.44635385      -0.90971625       1.23873399
C         3.54041501      -0.08674283       0.71616065
C         3.21250173       0.41347112      -0.67587987
O         2.02946644       0.43722418      -1.04248255
N         4.19087008       0.83404464      -1.46557279
C         3.89146761       1.16614460      -2.85537941
C         3.42315908      -0.01627924      -3.71694053
C         4.41059418      -1.17591296      -3.85222559
C         3.94898868      -2.16326428      -4.92993279
C         4.63393685      -3.52765150      -4.82809570
C         6.13367136      -3.50265951      -5.11929241
C         6.46992367      -3.08713557      -6.54918723
C         7.96550454      -3.19122249      -6.82392150
C         5.53749448       1.05605495      -0.97960488
C         6.41356408      -0.18228988      -1.10955050
C         7.80415718       0.09388267      -0.55560192
C         8.65271306      -1.17414915      -0.55937055
C         8.20454927      -2.20499519       0.47632346
C         8.40219895      -1.72605449       1.91296390
C         8.07948212      -2.80411255       2.94511177
C         6.58976207      -3.11158734       3.03801834
C         2.46800342      -0.90680276       2.68498106
C         1.26919294      -1.10368160       3.35251514
C         1.23870928      -1.18825965       4.73504162
C         2.41167758      -1.07344632       5.46554020
C         3.60803511      -0.83848196       4.80509299
C         3.64378812      -0.76319830       3.41995450
H         5.52204714      -7.99495369      -1.49853612
H         5.06762002      -6.61505818      -0.50231879
H         4.49634614      -8.24580948      -0.09732069
H         7.44238688      -7.50519584      -0.16565671
H         6.73643932      -8.97148760       0.49929843
H         6.42493119      -6.15120016       1.62848825
H         7.54661436      -7.37451915       2.19128426
H         5.89068210      -7.59360644       3.77091016
H         5.47209396      -8.85815109       2.62789673
H         3.45715097      -7.72199290       3.31378560
H         3.75624806      -7.32210348       1.63145660
H         4.82196433      -5.16302893       2.39522199
H         4.39522476      -5.58293098       4.05181674
H         2.71931234      -4.04123904       3.16795981
H         1.97986596      -5.61904134       3.38525722
H         2.12594341      -6.16818014       1.05657988
H         3.19909581      -4.81117648       0.71411071
H         0.18414938      -6.05781525       0.37015844
H        -0.34917587      -4.55460355      -0.38897252
H        -2.03865404      -5.47628498       1.10507676
H        -1.51033970      -3.87182630       1.63081586
H        -0.29146676      -4.74032254       3.47755309
H        -0.30069546      -6.38102182       2.82125759
H        -2.64436638      -6.65559515       3.24508307
H        -2.86176183      -4.94400941       3.58154556
H        -2.89360556      -6.25170650       5.64667913
H        -1.55427985      -5.10186365       5.62873498
H        -0.83777341      -7.21732950       6.56774928
H         0.02682572      -6.91586130       5.07038768
H        -1.45813878      -8.51998411       3.88256096
H        -2.40581860      -8.73768183       5.35286901
H         0.55789501      -9.42450985       5.04892642
H        -0.77030294     -10.58650898       5.05719423
H        -0.40215095      -9.65665782       6.50894483
H         2.79188162      -2.33786469      -0.27322614
H         3.32179189      -2.82933267       1.38467589
H         4.48956207      -0.62237754       0.74241534
H         3.58531097       0.79102361       1.36040682
H         4.80164391       1.58521163      -3.28439948
H         3.11267167       1.94031436      -2.84926711
H         3.25151391       0.39606944      -4.71243244
H         2.47321588      -0.39682316      -3.33180758
H         4.49717151      -1.69730116      -2.89616828
H         5.39424661      -0.79377280      -4.12477649
H         4.13692263      -1.73732158      -5.91465638
H         2.86876156      -2.30414662      -4.84453223
H         4.15516672      -4.21359369      -5.53002112
H         4.47903977      -3.92404166      -3.82057221
H         6.53107062      -4.50492044      -4.95258273
H         6.63718307      -2.83528532      -4.41774536
H         6.15434028      -2.05782891      -6.72726870
H         5.93051757      -3.72698298      -7.25035096
H         8.52644841      -2.55075925      -6.14541230
H         8.18671425      -2.88519020      -7.84358508
H         8.31077249      -4.21407821      -6.69175680
H         5.49753759       1.38380474       0.06315064
H         5.96653193       1.86727193      -1.57075888
H         6.48371208      -0.46771169      -2.15734845
H         5.95559227      -1.01878652      -0.57953527
H         7.71589797       0.49806146       0.45435167
H         8.27073443       0.86044511      -1.17474859
H         9.68981206      -0.90545877      -0.36579054
H         8.60175160      -1.61398309      -1.55844497
H         8.79424342      -3.10878623       0.32811662
H         7.15896251      -2.47395735       0.30792854
H         7.78233874      -0.84919874       2.11486927
H         9.44251658      -1.42765286       2.03524242
H         8.42538114      -2.47765025       3.92655212
H         8.61571368      -3.71924875       2.69227319
H         6.02495266      -2.22226030       3.31185022
H         6.41013896      -3.86863038       3.79673796
H         6.21198112      -3.48258664       2.08608921
H         0.36561578      -1.15234059       2.75628984
H         0.29547666      -1.34083270       5.23806946
H         2.40001317      -1.17091814       6.54047150
H         4.51993762      -0.72604308       5.37428747
H         4.59175117      -0.56352976       2.94085359
