43
strain_lig_135 ligand at complex geometry  charge=0 uhf=0  from=68|CCCCN(CCCC)C(=O)c1ccccc1C(=O)O|nitrate
C         0.71499973       3.30393587      -2.14892424
C        -0.31952330       4.40261676      -1.89756385
C        -1.65553169       4.21181637      -2.62359854
C        -2.48472261       3.01478595      -2.13431260
N        -2.93660973       3.23856671      -0.76513700
C        -4.27942213       3.75724908      -0.55302621
C        -5.17224624       2.74949187       0.18575591
C        -5.49686800       1.48457214      -0.61555583
C        -4.39522032       0.42716087      -0.62417536
C        -2.16455441       2.80275949       0.21136017
O        -1.28690945       1.89414338      -0.00662701
C        -2.23851037       3.25185781       1.62393381
C        -2.70670955       4.47320021       2.09871976
C        -2.63652644       4.76443909       3.45266428
C        -2.07397852       3.86030041       4.33791916
C        -1.52921309       2.66952870       3.87440441
C        -1.60856171       2.37096189       2.52469195
C        -0.97181787       1.15039838       1.95832795
O         0.23191037       0.98766737       1.79392665
O        -1.72334943       0.02330691       1.81892003
H         1.66645029       3.59101259      -1.70565810
H         0.86902391       3.17342116      -3.21759631
H         0.42750244       2.32857066      -1.71446920
H         0.10505165       5.34319815      -2.25501230
H        -0.48464182       4.51745680      -0.82096310
H        -1.45840014       4.06813737      -3.68718281
H        -2.24788160       5.12247960      -2.51300843
H        -1.85764413       2.12205007      -2.17445374
H        -3.34467008       2.86422166      -2.78635987
H        -4.71514153       3.97071378      -1.52929622
H        -4.25921706       4.68832698       0.00743798
H        -6.10984264       3.26039169       0.40748055
H        -4.72031315       2.47462754       1.14220810
H        -5.73969005       1.76496571      -1.64123430
H        -6.39161094       1.03241621      -0.18477723
H        -3.47964589       0.79314336      -1.08446436
H        -4.72488869      -0.44006669      -1.19062681
H        -4.16616707       0.09151417       0.38820643
H        -3.11921707       5.21638205       1.43598301
H        -3.02654610       5.70772940       3.80739849
H        -2.05681884       4.07932478       5.39323481
H        -1.04100077       1.98032564       4.54427039
H        -2.64956909       0.12718554       2.10058323
