58
strain_lig_074 ligand at complex geometry  charge=0 uhf=0  from=63|CCCCCCCCN(CCCCCCCC)C(=O)CO|nitrate
C         5.12098586      -3.10677252      -0.84331218
C         6.11780381      -2.39234238       0.05892313
C         6.04716314      -0.87483662      -0.08146588
C         4.71458871      -0.31065413       0.41465502
C         4.74812367       1.20960310       0.55593307
C         4.88365979       1.90595278      -0.79592814
C         4.72764078       3.41886420      -0.67417010
C         3.28803618       3.84413649      -0.37441775
N         2.32710322       3.53969056      -1.43355085
C         2.51788914       4.27317918      -2.67622025
C         2.29855899       5.78643784      -2.58870196
C         2.29033677       6.41948989      -3.98758637
C         3.67315097       6.77881770      -4.53957488
C         4.59758329       5.62881468      -4.94437838
C         4.00596014       4.68004662      -5.98858907
C         5.08708671       3.93502890      -6.77751256
C         6.05321314       3.14082655      -5.90541002
C         1.35501272       2.66986790      -1.23305445
O         1.28598612       1.90759362      -0.24121610
C         0.19537326       2.60153539      -2.23898437
O        -0.74675248       1.65768729      -1.72730072
H         5.27506903      -4.18005143      -0.76802486
H         5.28784925      -2.80687486      -1.87649481
H         4.09061376      -2.87583002      -0.56616369
H         7.12308492      -2.73044604      -0.19581190
H         5.92603565      -2.67059507       1.09733303
H         6.20959307      -0.60249074      -1.12425463
H         6.84940392      -0.43567910       0.51233637
H         4.53023757      -0.76655181       1.39353807
H         3.89907094      -0.59121041      -0.26360689
H         5.58673940       1.49334632       1.19236774
H         3.83478180       1.55475812       1.04681962
H         4.12595256       1.51548952      -1.48047755
H         5.86288211       1.68497258      -1.21819778
H         5.09087843       3.90765804      -1.57978950
H         5.34934033       3.77565043       0.14806002
H         3.26456266       4.92498398      -0.22181781
H         2.92941214       3.35594310       0.53191552
H         1.84986677       3.87295737      -3.43470317
H         3.53956525       4.08184999      -3.00314539
H         3.08387906       6.26952033      -2.00638164
H         1.34349945       5.98114895      -2.09426872
H         1.72733708       7.35128501      -3.92262770
H         1.76367135       5.76900417      -4.68840011
H         4.19377325       7.38936549      -3.79930120
H         3.51736964       7.40520798      -5.41899627
H         4.92163782       5.06713939      -4.06554447
H         5.49304690       6.08201619      -5.37179502
H         3.40964833       5.25817887      -6.69729106
H         3.33644967       3.95429388      -5.51533667
H         5.65900372       4.65690613      -7.36092242
H         4.60049054       3.26387227      -7.48970534
H         6.68128726       3.80427622      -5.31967630
H         6.70219976       2.53421377      -6.52936789
H         5.52643057       2.47767798      -5.22372294
H         0.51882376       2.27897399      -3.23812014
H        -0.26038507       3.59459617      -2.31863630
H        -1.58590173       1.82201422      -2.17326507
