126
strain_lig_064 ligand at complex geometry  charge=0 uhf=0  from=63|CCCCCCCCN(CCCCCCCC)C(=O)C(C)OC(C(=O)N(CCCCCCCC)CCCCCCCC)c1ccccc1|water
C       -11.85003604      -2.93661205       2.35452823
C       -10.42549437      -2.75976617       1.84232234
C       -10.20389178      -1.40627640       1.16826354
C        -8.74739966      -1.19726069       0.73501532
C        -8.34254223      -1.95404578      -0.53693417
C        -6.83773046      -2.27404608      -0.65184308
C        -6.47979966      -3.60289885       0.02577342
C        -5.00029985      -4.02394651      -0.01441304
N        -4.04532818      -3.15635662       0.68445680
C        -4.12213352      -3.24149996       2.14054493
C        -5.10827161      -2.28256039       2.81758579
C        -5.35656896      -2.68528582       4.28641913
C        -4.92104680      -1.62960823       5.30088169
C        -5.19407585      -2.07022207       6.74532315
C        -3.97065324      -2.75942919       7.34988487
C        -2.93747238      -1.73756859       7.82838267
C        -1.67069262      -2.41980421       8.33421834
C        -2.95834392      -2.62308649       0.11892858
O        -2.01284618      -2.09241453       0.73029746
C        -2.86028077      -2.68711989      -1.39618670
C        -2.17265250      -3.98402461      -1.83182378
O        -2.08431805      -1.55706635      -1.79706322
C        -2.27166446      -1.22380143      -3.18245094
C        -1.90390981       0.27339340      -3.26706489
O        -1.48103970       0.83040887      -2.23681472
N        -2.20045899       0.94107442      -4.38729236
C        -2.39104043       0.28944161      -5.67720811
C        -1.65398893       0.97657593      -6.83849774
C        -0.15903610       1.23012094      -6.55813065
C         0.85492678       0.80110754      -7.62946968
C         2.26878046       1.18860920      -7.18084117
C         3.39937941       0.76192736      -8.11798105
C         4.72171228       1.37678198      -7.65539880
C         5.95950704       0.90237287      -8.40670826
C        -2.63708197       2.33299659      -4.26750307
C        -1.53216884       3.35425201      -4.00684216
C        -2.12555554       4.71918045      -3.61961598
C        -1.26741146       5.92686527      -4.06203684
C        -0.86223214       6.85450830      -2.91621651
C        -0.17184254       8.13258869      -3.40548870
C         1.31339901       7.95853588      -3.74676856
C         2.27466682       8.27898532      -2.61031401
C        -3.70780459      -1.36854805      -3.66880828
C        -4.66324107      -0.45161785      -3.23238149
C        -5.94192297      -0.48133135      -3.75523885
C        -6.30708952      -1.47505797      -4.64571159
C        -5.38387852      -2.43482601      -5.02441047
C        -4.08309060      -2.37972967      -4.55000667
H       -11.96209102      -3.90159885       2.84389108
H       -12.10283611      -2.15942019       3.07201163
H       -12.56056140      -2.88982318       1.53419684
H        -9.73300212      -2.84911105       2.68368382
H       -10.19765759      -3.56398286       1.14076170
H       -10.87633042      -1.29834830       0.31552447
H       -10.46344323      -0.62485439       1.88554001
H        -8.58601720      -0.13316949       0.55248112
H        -8.10534351      -1.49075691       1.56772366
H        -8.89721600      -2.88773685      -0.61348887
H        -8.63542921      -1.34306819      -1.39236663
H        -6.58985290      -2.34854097      -1.71477794
H        -6.25257788      -1.44825488      -0.23565414
H        -6.82771677      -3.60427897       1.05691588
H        -7.02874445      -4.39729076      -0.48951110
H        -4.95001919      -5.00079936       0.48218900
H        -4.70810455      -4.17414233      -1.05130985
H        -4.40633880      -4.26658442       2.39236855
H        -3.11745823      -3.05164775       2.51638701
H        -4.73330436      -1.25914820       2.76843006
H        -6.06397300      -2.29730704       2.30194963
H        -6.42180341      -2.87784200       4.42216494
H        -4.82578497      -3.61264724       4.51448161
H        -3.84760954      -1.46913563       5.18536835
H        -5.43228849      -0.68806889       5.08908463
H        -5.45944605      -1.20596437       7.35920559
H        -6.04639090      -2.74835935       6.76440997
H        -4.26917151      -3.38016164       8.19688081
H        -3.51477931      -3.42394516       6.61038455
H        -2.67274145      -1.04151519       7.02176529
H        -3.37823873      -1.14345268       8.63253504
H        -1.13970790      -2.89255257       7.50707376
H        -1.00998180      -1.69295042       8.80686234
H        -1.92283284      -3.19207858       9.05976087
H        -3.86170507      -2.59693185      -1.82430576
H        -1.10133334      -3.83483349      -1.72359645
H        -2.46384063      -4.82941371      -1.21554928
H        -2.39889087      -4.20119083      -2.87218289
H        -1.60010464      -1.85533673      -3.78491796
H        -2.02228985      -0.73210112      -5.60825096
H        -3.46101938       0.27368255      -5.90529533
H        -1.78925052       0.32868611      -7.70696027
H        -2.14263302       1.92257370      -7.07391188
H        -0.02452831       2.30192799      -6.43677548
H         0.12675339       0.75745915      -5.61343092
H         0.82218520      -0.27233398      -7.81569059
H         0.63180666       1.29348979      -8.57523104
H         2.30670821       2.27249066      -7.07944707
H         2.45910730       0.75788917      -6.19272556
H         3.48199540      -0.32521091      -8.13413219
H         3.17885031       1.09847517      -9.13008234
H         4.65210423       2.46102064      -7.75219835
H         4.86257966       1.14972214      -6.59605897
H         5.91339376       1.16118114      -9.45875308
H         6.84379682       1.38335250      -7.99346182
H         6.08334796      -0.17474474      -8.33023961
H        -3.16980806       2.59021047      -5.18296094
H        -3.36076141       2.35687702      -3.44661432
H        -0.88268572       2.96564686      -3.22063598
H        -0.95026230       3.47721427      -4.91877438
H        -3.10991573       4.80706524      -4.08415147
H        -2.29003028       4.76631239      -2.53867972
H        -0.36057110       5.59230703      -4.56438108
H        -1.83658829       6.52114851      -4.77669549
H        -1.75834373       7.13080033      -2.35520168
H        -0.18590193       6.31751052      -2.25108620
H        -0.70806591       8.48399201      -4.28730316
H        -0.27384427       8.90674088      -2.64624546
H         1.49874627       6.93028101      -4.04452449
H         1.56006444       8.60324354      -4.59002884
H         2.05593240       7.68020924      -1.72893971
H         3.30071352       8.08652655      -2.92113920
H         2.21201595       9.32623854      -2.34125597
H        -4.39875172       0.27371749      -2.47504343
H        -6.64988130       0.27722611      -3.47013334
H        -7.31104753      -1.49855154      -5.03446304
H        -5.67852455      -3.21450091      -5.70519268
H        -3.37200153      -3.12824958      -4.87486076
