62
strain_lig_117 ligand at complex geometry  charge=0 uhf=0  from=63|CCCCCCN(CCCCCC)C(=O)c1ccc2ccc3cccnc3c2n1|nitrate
C         0.47430589      -2.06410149       5.25096992
C         0.47573476      -0.56674946       5.55112978
C        -0.90413185       0.07535828       5.39555961
C        -0.84789483       1.60429109       5.51146681
C        -0.46208349       2.29805321       4.19412963
C        -1.58388086       3.10029708       3.51480097
N        -2.65336134       2.32776175       2.86965584
C        -4.03167777       2.62302633       3.25822744
C        -4.32917970       2.62998845       4.76125501
C        -4.45047773       1.24376039       5.39621303
C        -5.61771704       0.40999623       4.86629031
C        -6.98795189       1.05606752       5.05284586
C        -8.10166884       0.12256112       4.59627376
C        -2.29450035       1.65768281       1.77509036
O        -1.08076873       1.51352148       1.49736467
C        -3.23949815       1.12550114       0.71996204
C        -4.42096218       1.75540552       0.29966360
C        -5.07663301       1.28270801      -0.81397918
C        -4.54571197       0.20429004      -1.53773533
C        -5.18317043      -0.31800302      -2.70056762
C        -4.61407371      -1.32616589      -3.40021032
C        -3.33339323      -1.83457523      -3.03458645
C        -2.67372687      -2.78513282      -3.83123728
C        -1.39919322      -3.17379503      -3.49128732
C        -0.79801696      -2.58771199      -2.37650918
N        -1.38263784      -1.69162903      -1.59622603
C        -2.65160127      -1.32884567      -1.90078015
C        -3.30751547      -0.32364568      -1.08956200
N        -2.69676670       0.13205329       0.01436959
H         1.44258909      -2.49863413       5.49047553
H         0.26497393      -2.24913043       4.19532241
H        -0.27318735      -2.58007597       5.85230952
H         1.18277978      -0.07062418       4.88234807
H         0.81717822      -0.41490920       6.57486008
H        -1.55650929      -0.32663722       6.17522883
H        -1.32104105      -0.19206105       4.42031135
H        -0.11833544       1.85833666       6.28201983
H        -1.80851242       1.98363160       5.85748586
H        -0.07536080       1.56125238       3.48651161
H         0.33710320       3.01472831       4.38829996
H        -1.12757379       3.72326565       2.73450200
H        -2.05676425       3.75961911       4.23935887
H        -4.68199082       1.87994006       2.79640521
H        -4.27642708       3.61417202       2.85483193
H        -5.27389892       3.15768622       4.87935822
H        -3.59192123       3.21651877       5.30937180
H        -4.58915204       1.38124389       6.46964833
H        -3.52485283       0.68640699       5.24603566
H        -5.62070765      -0.54127622       5.40136559
H        -5.46420855       0.18155261       3.80883285
H        -7.04926812       1.98285408       4.48254962
H        -7.13280251       1.30307339       6.10388711
H        -7.99269649      -0.11735709       3.53963781
H        -9.07287022       0.58668308       4.74013950
H        -8.08428448      -0.80571545       5.16224605
H        -4.80686069       2.62386814       0.80770667
H        -5.98532436       1.75672919      -1.15224926
H        -6.13420281       0.09405120      -2.99846750
H        -5.09597374      -1.74329210      -4.27224914
H        -3.15833114      -3.18392694      -4.71007307
H        -0.86367348      -3.89698002      -4.08084366
H         0.21331935      -2.86942288      -2.12002385
