57
strain_lig_146 ligand at complex geometry  charge=0 uhf=0  from=66|CCN(C(=O)c1cccc(C(=O)N(CC)c2ccc(C)cc2)n1)c1ccc(C)cc1|nitrate
C         0.71372328      -6.22226341       0.25914814
C         1.19425129      -5.26124915      -0.83690137
N         0.24567970      -4.16259238      -0.98267823
C         0.40113351      -3.04554513      -0.25919949
O        -0.41378278      -2.09760054      -0.31308915
C         1.59509798      -2.79388906       0.66595156
C         2.41246940      -3.66909166       1.38446356
C         3.40599001      -3.13009978       2.18196463
C         3.59273978      -1.76333104       2.26315727
C         2.71667416      -0.93680492       1.56245175
C         2.63184785       0.57729597       1.50398480
O         1.70620537       1.05976293       0.81266090
N         3.45501325       1.41496723       2.13471240
C         4.78019611       1.08243456       2.62950012
C         5.68848627       0.66870883       1.47198934
C         3.11709324       2.81111468       2.11495432
C         4.06689911       3.75119559       1.73943850
C         3.77942847       5.09922029       1.81204563
C         2.53629189       5.54881122       2.23973098
C         2.25160553       7.01339001       2.33044722
C         1.56658623       4.59532088       2.55317541
C         1.85136155       3.24372277       2.49913315
N         1.75366940      -1.47909990       0.81676753
C        -0.89807266      -4.43044749      -1.80971694
C        -1.16578752      -5.73271597      -2.24022028
C        -2.27510156      -6.02252059      -3.00759768
C        -3.17173648      -5.04060891      -3.41071056
C        -4.33962694      -5.38412236      -4.28136480
C        -2.90801912      -3.74157672      -2.98132209
C        -1.79529766      -3.43999144      -2.21471104
H         1.46670808      -6.97841656       0.46058019
H        -0.21427064      -6.72329580      -0.00479367
H         0.49614272      -5.68644887       1.18137698
H         1.31382270      -5.75415324      -1.80581747
H         2.17387068      -4.84388159      -0.59844495
H         2.30345611      -4.73686352       1.38987640
H         4.05167109      -3.78550169       2.74273555
H         4.38459997      -1.40293848       2.88518761
H         4.71060681       0.30722221       3.39411982
H         5.16731715       1.97410164       3.12483131
H         5.30510102      -0.20870629       0.95454912
H         6.68722195       0.45484475       1.83892463
H         5.76324456       1.46242645       0.73091917
H         5.03324153       3.44304100       1.37857351
H         4.54566684       5.80583732       1.52551700
H         3.14621358       7.60065808       2.13401423
H         1.87144320       7.28526534       3.31352814
H         1.49271284       7.30242905       1.60493334
H         0.57774205       4.90729761       2.85242181
H         1.08087564       2.53378077       2.75582471
H        -0.52845845      -6.56193394      -1.99634899
H        -2.43507954      -7.05399464      -3.28787085
H        -4.33384811      -6.44165242      -4.53537396
H        -4.33070244      -4.81601411      -5.21118920
H        -5.28452332      -5.16779287      -3.78710201
H        -3.58475482      -2.93997280      -3.24235974
H        -1.63830021      -2.41219551      -1.93684644
