126
strain_lig_100 ligand at complex geometry  charge=0 uhf=0  from=63|CCCCCCCCN(CCCCCCCC)C(=S)c1ccc2ccc3ccc(C(=S)N(CCCCCCCC)CCCCCCCC)nc3c2n1|nitrate
C         0.22951805      -1.43661054      -6.58445197
C        -0.50702708      -0.48510313      -7.52075447
C        -0.90549459       0.81529699      -6.81644632
C        -1.53004117       1.80902385      -7.79713485
C        -2.19125501       3.04286341      -7.17694162
C        -1.29593473       3.95461503      -6.33099797
C        -1.13937625       3.57263275      -4.85797805
C        -2.49231340       3.48455551      -4.13035095
N        -2.26544967       3.43248171      -2.69016252
C        -2.08139328       4.74653352      -2.07811392
C        -3.38427768       5.29380772      -1.46530420
C        -3.61905635       4.89246022       0.00354332
C        -4.96647272       4.21780258       0.26192548
C        -5.03307486       2.80927955      -0.32464685
C        -6.32157586       2.08296740       0.06343685
C        -6.35211871       0.65070439      -0.47186257
C        -7.62329529      -0.08297943      -0.06178218
C        -1.65491981       2.35559437      -2.15203964
S        -0.26403384       2.51175573      -1.23183794
C        -2.14321646       0.99255169      -2.42710666
C        -3.33946763       0.74590025      -3.13898056
C        -3.53716193      -0.49143972      -3.68335982
C        -2.62976923      -1.52698918      -3.40946274
C        -2.70032714      -2.78803591      -4.05684717
C        -1.84231583      -3.78098191      -3.71014244
C        -0.97277832      -3.61072791      -2.60070990
C        -0.12762180      -4.64205783      -2.15665904
C         0.56652388      -4.49809648      -0.98732610
C         0.39860970      -3.30720058      -0.24646686
C         1.04219487      -3.13626533       1.07377166
S         2.05733349      -1.79753060       1.15587393
N         0.93279934      -4.05375501       2.02597526
C         1.81168076      -4.00274732       3.19161210
C         1.11198500      -3.75476057       4.53758109
C         2.05260368      -3.20886008       5.61851651
C         2.45717498      -1.74179266       5.46965411
C         1.28396379      -0.77514036       5.62749967
C         1.74321733       0.67939701       5.52873889
C         0.61102018       1.68626156       5.74773419
C        -0.48176318       1.59707446       4.68901874
C         0.10341762      -5.24185658       1.85707825
C        -0.96758016      -5.49949433       2.93429633
C        -2.37187962      -5.60755574       2.33339650
C        -2.94855558      -4.23252182       2.00230852
C        -4.32654919      -4.31165537       1.34847477
C        -4.95121334      -2.92956073       1.12922848
C        -5.28220517      -2.15736938       2.41184742
C        -6.28501672      -2.86877441       3.31344042
N        -0.24412735      -2.25460473      -0.73996253
C        -0.92039618      -2.38714779      -1.89369418
C        -1.66010430      -1.26457864      -2.41237368
N        -1.40141897      -0.02135972      -1.97452130
H         0.48810278      -2.35406418      -7.10533989
H        -0.39042215      -1.68957208      -5.72504974
H         1.14817435      -0.97714238      -6.22705181
H        -1.40250046      -0.97675084      -7.90979555
H         0.13642656      -0.24815435      -8.37192431
H        -0.00822248       1.25246322      -6.37144928
H        -1.61391330       0.58544563      -6.01132603
H        -2.30154836       1.28579579      -8.36945256
H        -0.76262286       2.13188776      -8.50361548
H        -3.05722522       2.73122796      -6.59441482
H        -2.57240043       3.63820827      -8.00836417
H        -1.71206521       4.96330832      -6.36443267
H        -0.30648952       4.00941980      -6.78477797
H        -0.51510360       4.32899717      -4.37394493
H        -0.62822342       2.61508340      -4.74576340
H        -3.01513356       2.60123937      -4.48879235
H        -3.10408311       4.36027754      -4.34867537
H        -1.73137747       5.44358698      -2.84090541
H        -1.31808267       4.69090896      -1.30330039
H        -4.23701218       4.99259731      -2.07520054
H        -3.32571011       6.38179547      -1.52780856
H        -3.56399816       5.78904303       0.62100208
H        -2.82942796       4.22305538       0.34901059
H        -5.77495894       4.82794260      -0.14808199
H        -5.12018452       4.15569682       1.34149024
H        -4.17192481       2.23250889       0.03416802
H        -4.97180322       2.86458597      -1.41656453
H        -7.18282976       2.63622828      -0.32389934
H        -6.40724890       2.05905063       1.15309873
H        -5.47772451       0.10969942      -0.09461758
H        -6.28470343       0.67377862      -1.56500989
H        -7.70890625      -0.12268343       1.02092128
H        -7.61319340      -1.10077943      -0.44247495
H        -8.49998466       0.42525235      -0.45533806
H        -4.08646080       1.51533890      -3.24024459
H        -4.39996309      -0.70348257      -4.29234224
H        -3.42714477      -2.92194645      -4.84161062
H        -1.82973175      -4.72655510      -4.22757757
H        -0.06510997      -5.54965345      -2.73319111
H         1.23066324      -5.27344477      -0.63681412
H         2.53560772      -3.20442183       3.00895067
H         2.34709206      -4.95675512       3.22942359
H         0.69869166      -4.69259211       4.91464611
H         0.29810781      -3.04476311       4.39616591
H         2.94858935      -3.82974129       5.65765668
H         1.53890049      -3.31848995       6.57547175
H         2.93414722      -1.56911479       4.50320682
H         3.19975394      -1.52061618       6.24112512
H         0.80485993      -0.93816588       6.59703153
H         0.54838027      -0.96110425       4.84471854
H         2.18569841       0.84246193       4.54091897
H         2.52141017       0.86140909       6.27642310
H         1.03861014       2.69129440       5.72533762
H         0.16909656       1.53153584       6.73547943
H        -0.03105525       1.65112874       3.69726598
H        -1.18760511       2.41775651       4.79898749
H        -1.03157750       0.66278842       4.77667749
H         0.78476494      -6.09634314       1.80446368
H        -0.42226807      -5.17729379       0.90527595
H        -0.98879533      -4.68839835       3.65417076
H        -0.72956200      -6.42223453       3.46455169
H        -3.02462221      -6.08879340       3.06308008
H        -2.35624883      -6.24030714       1.44192325
H        -2.27521201      -3.68906468       1.32962974
H        -3.02361701      -3.65792284       2.92604659
H        -4.98957363      -4.91897429       1.96658330
H        -4.23847948      -4.81239527       0.37766976
H        -5.87048389      -3.05308210       0.54876781
H        -4.26066190      -2.32329803       0.53160890
H        -5.69848307      -1.18991316       2.11879127
H        -4.36651041      -1.95627670       2.96998932
H        -7.19810710      -3.09492344       2.76650450
H        -6.53860603      -2.23308693       4.15824780
H        -5.87513652      -3.79579884       3.70549708
