43
strain_lig_125 ligand at complex geometry  charge=0 uhf=0  from=63|CCCCN(C)C(=O)CC(=O)N(C)CCCC|nitrate
C         0.05304322       5.73101266      -0.35251648
C         0.57586730       5.53606408       1.06853062
C         2.10491215       5.46678880       1.16772749
C         2.71240395       4.11312733       0.79723899
N         2.47937460       3.78138882      -0.59836057
C         3.19292383       4.56430055      -1.58728816
C         1.57407817       2.85437244      -0.88283059
O         1.03025690       2.17432497       0.00876974
C         1.22431859       2.63570479      -2.34463785
C        -0.24653104       2.28836505      -2.51163341
O        -0.79518742       1.56638236      -1.66359625
N        -0.89394688       2.69988898      -3.60040787
C        -2.20541788       2.13788773      -3.85478105
C        -0.37227589       3.54916496      -4.65991427
C         0.22869470       2.70173367      -5.78713257
C         1.11109644       3.48620160      -6.75558750
C         2.40418320       3.99607085      -6.13329435
H        -1.02112638       5.89769287      -0.34356883
H         0.24108369       4.85772518      -0.97189089
H         0.51698839       6.60073142      -0.81116157
H         0.13718651       4.62938064       1.49378425
H         0.24071056       6.38047449       1.67447207
H         2.40984975       5.66897730       2.19525433
H         2.53418331       6.24457002       0.53467663
H         2.26818509       3.31898610       1.40411633
H         3.79142893       4.12389310       0.96526607
H         3.90801188       5.19320908      -1.06434934
H         2.52174062       5.21695654      -2.15034634
H         3.74208779       3.91498645      -2.27202699
H         1.75239133       1.72624430      -2.63749222
H         1.53746449       3.45888437      -2.97276315
H        -2.45631813       1.44825473      -3.05124593
H        -2.18564187       1.59487541      -4.79784246
H        -2.94106693       2.93569684      -3.90418019
H         0.36599848       4.24950390      -4.26944382
H        -1.20802545       4.14339466      -5.03531863
H        -0.58975037       2.24456850      -6.34685438
H         0.81472796       1.89689649      -5.33612782
H         0.54216725       4.32130056      -7.16280968
H         1.35806799       2.82595016      -7.58808738
H         2.21312538       4.76955447      -5.39441283
H         3.02578928       4.43010537      -6.90899697
H         2.96559910       3.18775045      -5.66672475
