108
strain_lig_009 ligand at complex geometry  charge=0 uhf=0  from=63|CC(C)CCN(CCC(C)C)C(=O)COCC(=O)NCc1cccc(CNC(=O)COCC(=O)N(CCC(C)C)CCC(C)C)c1|nitrate
C         1.76143583      -6.16133134       4.12015160
C         0.61654701      -6.08933726       3.11145535
C        -0.39955167      -7.19058094       3.40995540
C        -0.04725124      -4.70432004       3.15000872
C        -0.86218079      -4.42853217       1.87977776
N        -1.92454745      -3.45873459       2.09728326
C        -3.15253579      -3.94862610       2.72230216
C        -3.27015609      -3.77319719       4.24510871
C        -4.71579514      -3.97401243       4.73743706
C        -4.73019865      -4.16144727       6.25399181
C        -5.63072801      -2.80696318       4.36754243
C        -1.83980596      -2.24841517       1.54548280
O        -0.95856029      -1.88770258       0.75305391
C        -2.90846309      -1.23332353       1.96525992
O        -2.37909147       0.07206542       1.90704175
C        -1.65100050       0.48039473       3.05014968
C        -0.19486715       0.79908447       2.69561098
O         0.33217307       0.34723156       1.67573742
N         0.47827890       1.57262886       3.54560920
C         0.03785397       2.25359027       4.74912862
C         0.60990622       1.68167140       6.02772661
C         0.88738501       2.54485417       7.07935333
C         1.33164920       2.04764835       8.28877216
C         1.48512005       0.68441589       8.46374948
C         1.20889356      -0.18959220       7.42212524
C         1.37637115      -1.66600109       7.60143650
N         2.40481866      -2.17580231       6.71086936
C         2.65109732      -3.49312908       6.60380939
O         1.96298621      -4.35332715       7.10011629
C         3.92686535      -3.79998525       5.80985821
O         3.73980752      -3.43311326       4.45252387
C         4.93881758      -3.23156556       3.74031498
C         5.10068116      -1.74012956       3.43063499
O         4.12605064      -0.99703473       3.50004535
N         6.31341457      -1.27222321       3.09324346
C         6.45985537       0.17266261       2.94103353
C         6.29914956       0.92075170       4.26724946
C         6.02334527       2.41397620       4.05018462
C         5.53158058       3.04407076       5.35226884
C         7.26639439       3.14506907       3.55019503
C         7.46343212      -2.07659571       2.73634099
C         7.61431609      -2.18633992       1.20722228
C         6.89554893      -3.38848176       0.57611265
C         7.61122890      -4.69136837       0.92151907
C         6.82573227      -3.23088991      -0.94582054
C         0.77449925       0.31643880       6.20321716
H         2.22358056      -7.14546471       4.08636402
H         1.40067029      -5.98804671       5.13276335
H         2.51670947      -5.41200394       3.89523461
H         1.02206687      -6.24534819       2.10240015
H        -0.76362443      -7.10159149       4.43137348
H         0.06348489      -8.16812016       3.30551761
H        -1.25071337      -7.15215616       2.73278694
H         0.71577450      -3.93315452       3.27827855
H        -0.69435571      -4.66451490       4.02422277
H        -1.32024268      -5.35493722       1.52196468
H        -0.20994231      -4.02411437       1.10408465
H        -3.21356061      -5.01670216       2.50180311
H        -3.99717844      -3.46461580       2.22779605
H        -2.91786376      -2.78698600       4.55929495
H        -2.64464124      -4.51681875       4.74004026
H        -5.11099901      -4.88441608       4.27597183
H        -4.33491210      -3.28020505       6.75516626
H        -4.14008697      -5.02540152       6.54874593
H        -5.74947843      -4.31409243       6.59744684
H        -5.26744280      -1.88244853       4.81535447
H        -6.62719960      -2.99633092       4.75792061
H        -5.71944091      -2.67917768       3.28959092
H        -3.30864761      -1.43501483       2.96227473
H        -3.73278087      -1.25292365       1.24675366
H        -1.64943723      -0.28807042       3.83333470
H        -2.16167227       1.36700369       3.43981703
H         1.44654661       1.72648400       3.28729569
H        -1.05143927       2.21426122       4.82550940
H         0.32507720       3.30821465       4.66715817
H         0.74764942       3.60695085       6.95122402
H         1.55976276       2.71971485       9.09821329
H         1.80699433       0.30417509       9.41873442
H         0.44597678      -2.20432344       7.39039476
H         1.65610230      -1.89528709       8.63425552
H         3.01042567      -1.52155230       6.24240203
H         4.14420864      -4.87390991       5.89009720
H         4.74993920      -3.22574570       6.25651259
H         4.87094814      -3.79706395       2.80245655
H         5.79203914      -3.60646754       4.31050243
H         5.69109736       0.53441115       2.25199045
H         7.44307094       0.36669497       2.51562305
H         7.18917642       0.79021514       4.88556666
H         5.44886237       0.49534904       4.79958037
H         5.22487550       2.51394391       3.29951590
H         6.27608668       2.93142714       6.13631574
H         4.60921135       2.57166989       5.68515204
H         5.34131693       4.10587202       5.21526553
H         7.61045708       2.74643590       2.59839630
H         8.07404095       3.04767894       4.27111337
H         7.05570967       4.20360210       3.41850146
H         7.37990742      -3.06554148       3.18040152
H         8.35249859      -1.60162033       3.15783612
H         8.67443653      -2.24865614       0.96110947
H         7.22861373      -1.26680591       0.75933845
H         5.87106966      -3.42722247       0.97000185
H         8.60702904      -4.68949893       0.48628271
H         7.06681015      -5.54583641       0.52599801
H         7.71046358      -4.82201129       1.99588617
H         7.82161863      -3.08692848      -1.35911431
H         6.21303563      -2.37563972      -1.23117852
H         6.40281826      -4.12340799      -1.40521768
H         0.57586529      -0.36605909       5.38877176
