42
strain_lig_001 ligand at complex geometry  charge=0 uhf=0  from=68|C1COCCOCCOCCOCCOCCO1|nitrate
C         0.29790142      -0.21480413      -3.18717143
C         0.31749205       1.26304031      -2.77042162
O        -0.52301860       1.34124755      -1.61555398
C        -0.89886633       2.64742966      -1.16517323
C        -2.07434573       2.42260712      -0.20244834
O        -1.69285967       1.41816220       0.75423817
C        -1.78457128       1.75609233       2.14508106
C        -1.16930226       0.55399359       2.87581342
O         0.10203379       0.22228482       2.30716334
C         1.21546729       1.00678974       2.75488908
C         1.70455042       1.92170032       1.61646252
O         1.72289888       1.22969536       0.35936872
C         2.96451461       0.58496477       0.04091396
C         2.99547296      -0.86199248       0.56745278
O         1.73599922      -1.49832469       0.31414655
C         1.74021024      -2.53378389      -0.67408852
C         1.67186824      -1.92934911      -2.08354232
O         0.56580854      -1.01802633      -2.02513577
H         1.02033596      -0.39222065      -3.98908992
H        -0.70853798      -0.47650692      -3.53743023
H        -0.07325674       1.88535114      -3.58363549
H         1.34078075       1.59112124      -2.51612670
H        -1.21937378       3.27679716      -2.00223157
H        -0.04763750       3.12449988      -0.64974375
H        -2.93124831       2.03115215      -0.76564610
H        -2.35098839       3.36377728       0.27969674
H        -2.82845288       1.87468956       2.45131277
H        -1.23586233       2.68552655       2.35879403
H        -1.80202995      -0.33192837       2.71466563
H        -1.09188097       0.73945918       3.95446304
H         2.00098873       0.30731246       3.05670432
H         0.95398732       1.62405686       3.61734386
H         2.69300423       2.32525086       1.85815600
H         1.01781605       2.76659716       1.48575761
H         3.81430984       1.14872436       0.43997286
H         3.03520721       0.59437017      -1.05356551
H         3.15184302      -0.87755983       1.65058136
H         3.82163943      -1.39535839       0.09239462
H         0.82457095      -3.11604435      -0.48825549
H         2.60839512      -3.19412095      -0.56158300
H         1.48409720      -2.72279648      -2.81328454
H         2.60239499      -1.40392596      -2.34975758
