39
strain_lig_154 ligand at complex geometry  charge=0 uhf=0  from=66|CN(C(=O)CC(=O)N(C)c1ccccc1)c1ccccc1|nitrate
C        -3.62313789      -2.74579367       3.48299036
N        -2.94987685      -1.50045918       3.14349062
C        -2.21075185      -1.35413268       2.04268663
O        -1.60770163      -0.30928544       1.77580903
C        -2.05831252      -2.49103187       1.03103659
C        -2.60093952      -1.96269387      -0.30983294
O        -2.15499535      -0.86313052      -0.67182858
N        -3.44456420      -2.70343498      -1.03897911
C        -4.19591528      -3.82445143      -0.48542502
C        -3.72601767      -2.41321850      -2.41744536
C        -4.71320705      -3.14495860      -3.07815922
C        -5.00718997      -2.91601643      -4.40968913
C        -4.32348314      -1.96009252      -5.13507394
C        -3.33328027      -1.24154213      -4.49133142
C        -3.02990205      -1.45556649      -3.15663868
C        -3.03267015      -0.41481410       4.07597069
C        -3.07748358      -0.69526712       5.43704678
C        -3.25594016       0.32622393       6.35237837
C        -3.34913413       1.64046814       5.93129868
C        -3.24861225       1.92025969       4.57941108
C        -3.10310481       0.90707176       3.64626312
H        -4.28901380      -3.05904256       2.67483972
H        -4.23615074      -2.58681861       4.36951678
H        -2.89395912      -3.53242754       3.70313752
H        -2.45561033      -3.43632299       1.36495158
H        -0.97087502      -2.60197593       0.86255251
H        -3.95483309      -4.02697736       0.55349110
H        -3.99471704      -4.72571196      -1.06880682
H        -5.26203704      -3.58697817      -0.53698757
H        -5.28479656      -3.91088039      -2.58721706
H        -5.78819116      -3.49276861      -4.87239514
H        -4.55633870      -1.77055001      -6.17219582
H        -2.79946184      -0.47944544      -5.03846514
H        -2.25786232      -0.85066688      -2.71213883
H        -2.97358802      -1.70629101       5.80004171
H        -3.34164004       0.08228285       7.39715830
H        -3.50545882       2.43985175       6.64076350
H        -3.30798473       2.94459659       4.24469233
H        -3.04327828       1.15422307       2.59702811
