113
strain_lig_099 ligand at complex geometry  charge=0 uhf=0  from=63|CCCCCCCCN(CCCCCCCC)C(=S)c1ccc(C(=S)N(CCCCCCCC)CCCCCCCC)s1|nitrate
C        -4.49391283      -8.00981313      -2.40996610
C        -5.16506914      -7.04091591      -3.37548380
C        -5.21464637      -5.62964003      -2.78866254
C        -5.85663149      -4.61058335      -3.73201256
C        -5.95370193      -3.19945451      -3.14157434
C        -4.60541005      -2.49384543      -3.01356727
C        -4.64152180      -1.29175002      -2.06440204
C        -3.21626186      -0.86869962      -1.66584356
N        -2.97308440      -0.79850057      -0.23216039
C        -2.85455301      -2.07259512       0.48657106
C        -2.06167873      -3.17413044      -0.23201470
C        -1.36007595      -4.11148337       0.76399052
C        -0.33980805      -5.01964678       0.06332228
C        -0.94539599      -6.23174937      -0.64619188
C         0.11898793      -7.07139844      -1.36110224
C         0.71522893      -6.42082792      -2.61161111
C        -0.30122379      -6.24945359      -3.73707299
C        -2.60856035       0.32348485       0.38153981
S        -2.08372940       0.35455427       2.01734083
C        -2.34468859       1.55613827      -0.33488520
C        -2.72736296       2.17378058      -1.51366471
C        -1.63291909       2.67635966      -2.25120771
C        -0.41233130       2.37978656      -1.65631778
C         0.72025787       1.55419497      -2.01708056
S         1.92083208       1.35370710      -0.82006849
N         0.67622138       0.70927322      -3.04960506
C        -0.09852416       1.00833219      -4.23935421
C        -0.78157857      -0.17036362      -4.93175659
C        -1.89605467       0.29863674      -5.87586995
C        -1.46965046       1.28236271      -6.96622326
C        -0.35514474       0.86095913      -7.93169753
C        -0.67848584      -0.26916364      -8.91464142
C        -0.46887086      -1.68792803      -8.38584430
C         0.99780907      -2.04195205      -8.17088894
C         1.17294673      -0.64544141      -2.83729229
C         2.68179617      -0.92029454      -2.86452194
C         3.35997596      -0.36849723      -4.11516433
C         3.84098460       1.07241911      -3.92103880
C         4.40214823       1.68052198      -5.20544827
C         3.31628430       1.97695896      -6.23591058
C         3.78466142       2.88497154      -7.37150655
C         4.90720449       2.26694886      -8.19409519
S        -0.70459224       2.06467795       0.06545527
H        -4.46420033      -9.01034673      -2.82848562
H        -5.03900890      -8.05169881      -1.47090858
H        -3.47339272      -7.69955908      -2.20035648
H        -6.17946576      -7.38215238      -3.58947429
H        -4.61509346      -7.02424910      -4.31918709
H        -4.19191088      -5.32915649      -2.54663746
H        -5.77928982      -5.65656366      -1.85394480
H        -6.86893903      -4.94872880      -3.95889129
H        -5.30235958      -4.57926608      -4.67233491
H        -6.41817128      -3.26404509      -2.15585445
H        -6.61057657      -2.59990390      -3.77137079
H        -4.25746613      -2.16609874      -3.99328581
H        -3.88130022      -3.21288494      -2.63238917
H        -5.20959073      -1.55298749      -1.17328283
H        -5.14610071      -0.45112285      -2.53811019
H        -2.97143629       0.09211337      -2.11441214
H        -2.52036181      -1.60737415      -2.06742785
H        -3.85088539      -2.42470896       0.75873656
H        -2.32299963      -1.85540799       1.42040276
H        -1.26558168      -2.72119290      -0.83467422
H        -2.70455171      -3.75962389      -0.88631804
H        -2.09371867      -4.71776116       1.30265375
H        -0.82464820      -3.48088079       1.48772954
H         0.36527767      -5.38365575       0.80883844
H         0.23303859      -4.42015153      -0.64667445
H        -1.70382503      -5.91733148      -1.36472725
H        -1.43913710      -6.86322073       0.09440295
H        -0.32733624      -8.02597269      -1.64986206
H         0.92636002      -7.28699568      -0.65734271
H         1.52856658      -7.05607514      -2.96895729
H         1.14955471      -5.45143747      -2.35398990
H        -0.79585173      -7.19571064      -3.94777896
H         0.19131906      -5.91492530      -4.64815154
H        -1.05981599      -5.51421576      -3.47287826
H        -3.73650539       2.20029293      -1.88383373
H        -1.75902738       3.20658480      -3.18353733
H         0.54615027       1.54338322      -4.94417431
H        -0.89048707       1.68832519      -3.92833443
H        -1.25043203      -0.79827272      -4.17174066
H        -0.07209174      -0.76834317      -5.49852167
H        -2.67438553       0.77947657      -5.27733388
H        -2.33839058      -0.58659976      -6.33341268
H        -1.15216493       2.21369953      -6.48742980
H        -2.36249731       1.52270083      -7.54601742
H         0.54318415       0.60732125      -7.37085235
H        -0.12151572       1.75451412      -8.51575265
H        -0.03341323      -0.13796674      -9.78566886
H        -1.70883402      -0.16031645      -9.25854332
H        -0.87853521      -2.38447705      -9.11618730
H        -1.02002699      -1.83016647      -7.45811453
H         1.56133117      -1.91738308      -9.09411031
H         1.09288820      -3.07930842      -7.85395900
H         1.46062805      -1.41550886      -7.40885752
H         0.72711147      -1.26267109      -3.61162597
H         0.78101951      -0.96343362      -1.85350733
H         2.77544471      -2.00847117      -2.82165826
H         3.17592525      -0.52017665      -1.97742782
H         2.67055111      -0.43249014      -4.96089480
H         4.22119394      -0.99480751      -4.35046263
H         4.62075161       1.07293083      -3.15287563
H         3.02801733       1.70584074      -3.55166920
H         5.14126812       0.99738840      -5.62035981
H         4.91322828       2.60835768      -4.95032391
H         2.48134609       2.47174006      -5.72931650
H         2.95176015       1.04261744      -6.66657022
H         4.11390186       3.84398888      -6.96592111
H         2.93369384       3.08639554      -8.02718013
H         5.80382762       2.14069604      -7.59378357
H         5.15212390       2.90447998      -9.04022443
H         4.60293589       1.29257572      -8.57049915
