95
strain_lig_131 ligand at complex geometry  charge=0 uhf=0  from=63|CCCCN(CCCC)C(=O)COCC(=O)NCCCCCNC(=O)COCC(=O)N(CCCC)CCCC|nitrate
C         6.14469207      -3.69000520       2.61386065
C         6.15141972      -2.24183878       2.13989784
C         5.17117880      -2.03728075       0.98350855
C         5.13731012      -0.60855743       0.43593739
N         4.52589461       0.34412372       1.35848702
C         5.37689340       0.96212773       2.36364749
C         5.45679600       2.48986027       2.39991474
C         6.22489530       3.13639564       1.23814742
C         5.31760785       4.05474198       0.43342946
C         3.19396196       0.37984719       1.36419837
O         2.50418200      -0.32831985       0.62630130
C         2.48630139       1.42797288       2.22698984
O         1.09529366       1.15442310       2.28659524
C         0.65306854       0.57652844       3.50239000
C        -0.20692858      -0.65529199       3.23522348
O        -0.20755201      -1.20803395       2.13389602
N        -0.97993491      -1.02969033       4.25582255
C        -1.84439959      -2.20210491       4.24235927
C        -1.45347676      -3.20780868       5.32378382
C         0.01635393      -3.59473533       5.21618477
C         0.38536632      -4.19620808       3.85987517
C         1.85195267      -4.63715953       3.83524976
N         2.73111817      -3.61710377       4.38686288
C         2.80486292      -2.34858941       3.96730455
O         2.25885466      -1.89569909       2.97447387
C         3.60741749      -1.43035922       4.90628155
O         2.69173578      -0.56280630       5.55985717
C         2.50062281      -0.85058009       6.93616357
C         1.27372356      -0.12941702       7.51562341
O         0.32628467      -0.79757060       7.89099945
N         1.30866637       1.20818387       7.61864148
C         2.29455941       2.03986285       6.95983839
C         3.51832065       2.38881515       7.81801703
C         4.40742598       3.44030504       7.14410744
C         4.94967426       3.00173287       5.78657359
C         0.31727247       1.86989470       8.46569385
C        -1.11075283       1.75960068       7.92708689
C        -1.25268662       2.34185311       6.52375058
C        -2.65004807       2.09722545       5.97199671
H         6.79584726      -3.81841166       3.47299356
H         5.13808364      -3.98942447       2.89541606
H         6.49353505      -4.34409779       1.82249653
H         5.88641344      -1.60526231       2.98373980
H         7.16000101      -1.96648580       1.82391791
H         5.46540622      -2.68964478       0.16071709
H         4.16741683      -2.32260810       1.30411198
H         6.15328053      -0.27068600       0.23024438
H         4.54469368      -0.59600763      -0.48332478
H         5.06053288       0.62297439       3.35656470
H         6.38594720       0.58874489       2.19340122
H         4.46703371       2.93816086       2.44228466
H         5.96184679       2.72164752       3.33491730
H         7.05911172       3.71927916       1.62394231
H         6.64432775       2.37278465       0.58320574
H         4.50717832       3.47594257       0.00308366
H         5.86990627       4.53645965      -0.36601430
H         4.89740320       4.83156340       1.06627822
H         2.91859186       1.49668950       3.22496371
H         2.58514273       2.38655503       1.70818238
H         1.48225878       0.24242840       4.13079406
H         0.08890626       1.34335751       4.04620427
H        -0.80777584      -0.63745088       5.17293272
H        -2.87533141      -1.87271248       4.41152657
H        -1.77029191      -2.66330814       3.25480874
H        -1.63042213      -2.77915174       6.31174655
H        -2.08789801      -4.08716717       5.21193974
H         0.61588865      -2.69945808       5.39433626
H         0.24662508      -4.30614676       6.00768895
H        -0.23692449      -5.06776181       3.64889403
H         0.23511407      -3.46223090       3.06782276
H         1.98978680      -5.53171262       4.44341583
H         2.14616715      -4.85018505       2.80423733
H         3.22741152      -3.86518621       5.22636600
H         4.20839198      -1.98525631       5.62856823
H         4.26302054      -0.80088897       4.30226219
H         2.30548242      -1.91696226       7.09783749
H         3.38932880      -0.56122787       7.51153939
H         2.62594242       1.53026496       6.05685572
H         1.79495055       2.96412722       6.65636128
H         3.19845951       2.77561848       8.78656138
H         4.11310476       1.49129198       8.00352791
H         3.85097015       4.37254515       7.01727599
H         5.25067578       3.64818878       7.80475810
H         4.15105305       2.93859804       5.05076216
H         5.67640472       3.72915269       5.43571976
H         5.44043755       2.03342622       5.85995928
H         0.33555715       1.41962429       9.46138107
H         0.60163426       2.91960146       8.54962112
H        -1.40074229       0.70842908       7.91531783
H        -1.77202012       2.29209988       8.61199450
H        -1.04872287       3.41388368       6.55281005
H        -0.50769989       1.87611156       5.87041300
H        -3.37878072       2.57891144       6.61379764
H        -2.76657284       2.49727446       4.96844476
H        -2.86490082       1.03238581       5.94932872
