97
strain_lig_040 ligand at complex geometry  charge=0 uhf=0  from=63|CCCCCCCCCCCCNCC(=O)c1cccc(C(=O)CNCCCCCCCCCCCC)n1|nitrate
C         2.03225068      -0.17927204       6.20240259
C         1.32031857      -1.48393574       5.86536665
C        -0.12655085      -1.50358992       6.35926626
C        -0.83043367      -2.81772113       6.00397257
C        -1.30313257      -2.85655882       4.54470553
C        -1.35699548      -4.25727649       3.92276649
C         0.00556298      -4.93343173       3.73719355
C         0.91708022      -4.13216941       2.81129582
C         2.20456423      -4.85554408       2.42630757
C         3.01838814      -4.04220098       1.41144644
C         3.79315731      -2.85161223       2.01214630
C         3.52108066      -1.54157749       1.27057527
N         2.16001377      -1.01416727       1.53293303
C         2.13837115       0.17046891       2.42555314
C         0.67915555       0.56584939       2.48743552
O        -0.16664601      -0.31131230       2.53026696
C         0.17913959       1.92851500       2.07743757
C         0.02019362       3.09494188       2.80342749
C        -0.65593225       4.15504782       2.20747784
C        -1.15512523       4.01431368       0.92273714
C        -0.96883049       2.80002276       0.27250014
C        -1.51447789       2.38994500      -1.08157753
O        -2.52262663       1.74925401      -1.19008187
C        -0.58535736       2.67520393      -2.25925988
N         0.26151603       1.47725771      -2.44386334
C        -0.14873509       0.61818372      -3.56897911
C        -1.22653567      -0.38559710      -3.15676229
C        -1.41779106      -1.47788054      -4.21588074
C        -0.26051541      -2.47941351      -4.32743905
C         0.04749951      -3.33490272      -3.09010089
C        -1.09902345      -4.23635415      -2.62356317
C        -2.16427869      -3.51423215      -1.79274909
C        -2.87249534      -4.41941298      -0.78316735
C        -4.18110362      -3.76952736      -0.32145431
C        -4.71449143      -4.31873526       1.00133241
C        -4.93842845      -5.82999045       1.01255831
C        -5.95220174      -6.29125838      -0.02743869
N        -0.32643771       1.78157313       0.84048983
H         3.07175967      -0.20057306       5.87601056
H         2.02461672      -0.01988019       7.27716055
H         1.53181331       0.66617044       5.73100622
H         1.86343503      -2.31631780       6.31973374
H         1.33154679      -1.63848596       4.78344166
H        -0.67794298      -0.66269841       5.92923099
H        -0.12382485      -1.37567754       7.44314090
H        -1.69066157      -2.95934488       6.66103034
H        -0.13692855      -3.63696394       6.19964778
H        -0.66403091      -2.22242238       3.92935394
H        -2.30176762      -2.41893374       4.48091525
H        -1.83795802      -4.16284916       2.94497504
H        -1.98481158      -4.90017006       4.54264519
H        -0.14699086      -5.92835609       3.31144361
H         0.48996594      -5.06806964       4.70613018
H         1.17869863      -3.20009777       3.31685342
H         0.36868563      -3.89003107       1.89582551
H         1.95257151      -5.81848388       1.97572674
H         2.81049003      -5.05216478       3.31381762
H         2.33140958      -3.67484231       0.63992320
H         3.72313620      -4.70892951       0.91122609
H         4.86470700      -3.05079866       1.95877141
H         3.54589089      -2.73373263       3.06832473
H         3.62804318      -1.72180957       0.19460984
H         4.26070985      -0.79003082       1.55708766
H         1.65573639      -1.77053132       2.01602750
H         2.73339509       0.98445111       2.00083671
H         2.51261093      -0.05749899       3.43709290
H         0.38273730       3.17337435       3.81516494
H        -0.82567740       5.07149820       2.75408412
H        -1.71447572       4.80748733       0.45458160
H         0.03194761       3.54756235      -2.03694214
H        -1.18969002       2.87189800      -3.15446044
H         1.19279243       1.82531973      -2.67439167
H         0.73712960       0.06579485      -3.89683915
H        -0.50220777       1.22272538      -4.41337213
H        -2.18042077       0.12163063      -2.98453167
H        -0.91330027      -0.86063285      -2.19190571
H        -1.54800043      -0.99555741      -5.18807171
H        -2.34205479      -2.01158434      -4.00353916
H         0.65297618      -1.94780273      -4.60848473
H        -0.50165592      -3.15629535      -5.15127678
H         0.38923805      -2.71786349      -2.24095082
H         0.89633073      -3.96859903      -3.35834844
H        -0.66948584      -5.03261729      -2.01189470
H        -1.56278285      -4.70428922      -3.49462472
H        -2.93217211      -3.08021780      -2.43423177
H        -1.68505697      -2.69209141      -1.23992624
H        -2.21705029      -4.59792899       0.07307517
H        -3.08092127      -5.38241403      -1.25277937
H        -4.93309134      -3.89701743      -1.10284982
H        -4.02364717      -2.69296096      -0.19735149
H        -5.66043735      -3.81799490       1.21940191
H        -4.01787782      -4.05522226       1.80077477
H        -5.29625242      -6.11090924       2.00513776
H        -3.99080707      -6.34599672       0.84789648
H        -6.86947998      -5.71162605       0.04885825
H        -6.19510320      -7.33927206       0.12796795
H        -5.55765189      -6.18243424      -1.03456517
