70
strain_lig_024 ligand at complex geometry  charge=0 uhf=0  from=63|CCCCC(CC)CP(=O)(CC(=O)N(CC(C)C)CC(C)C)c1ccccc1|nitrate
C        -7.00393489      -2.82881936      -3.59520568
C        -7.91994278      -2.91765018      -2.37761625
C        -7.44306634      -2.09282535      -1.17900118
C        -6.20502759      -2.67891255      -0.49186722
C        -4.84947174      -2.16285784      -0.99706455
C        -3.71175261      -3.11949359      -0.61251593
C        -3.89781319      -4.54045796      -1.14187400
C        -4.60722173      -0.75585493      -0.41943584
P        -3.38436024       0.28637301      -1.33069239
O        -1.97261180      -0.20884052      -1.32316566
C        -3.37160445       1.93214976      -0.47418333
C        -3.08439789       1.69650199       0.98257839
O        -2.17673051       0.88320233       1.25940695
N        -3.78166757       2.37460395       1.89173768
C        -3.35027491       2.37723126       3.28674709
C        -3.23239597       1.02942021       4.00165623
C        -4.50915284       0.20031218       3.90975790
C        -2.84552831       1.34180758       5.44886632
C        -4.72193450       3.42975485       1.51037926
C        -6.08837496       2.94546908       0.98236414
C        -6.79079478       4.10611231       0.27976365
C        -6.96268020       2.38721702       2.10140624
C        -4.01637466       0.61549522      -2.99556901
C        -3.24390820       0.30505879      -4.10528088
C        -3.73967734       0.53028528      -5.37643846
C        -5.00422622       1.06950891      -5.53666368
C        -5.76757708       1.40773265      -4.43101991
C        -5.27518282       1.17871531      -3.16143326
H        -7.51076630      -3.22526752      -4.47151374
H        -6.09642586      -3.41005202      -3.44434602
H        -6.73501355      -1.79217031      -3.80102049
H        -8.02157289      -3.96286959      -2.07727508
H        -8.91356311      -2.56618788      -2.65862572
H        -8.25504582      -2.06947271      -0.45070075
H        -7.26643412      -1.06521655      -1.50532773
H        -6.24765878      -3.75589348      -0.62940731
H        -6.25121006      -2.48995823       0.58227655
H        -4.87149481      -2.08967420      -2.08759007
H        -3.62782434      -3.16191577       0.47716934
H        -2.77558614      -2.72132413      -1.01166691
H        -4.63193443      -5.09145172      -0.56125560
H        -2.95791951      -5.08423464      -1.09069363
H        -4.21933057      -4.52398667      -2.17924721
H        -4.29299023      -0.81574452       0.63000563
H        -5.55319170      -0.20947844      -0.45240905
H        -4.23723000       2.53378248      -0.71400247
H        -2.46342587       2.40104042      -0.86784427
H        -4.03790678       3.00538378       3.85165899
H        -2.35744363       2.83282666       3.30822673
H        -2.41460406       0.48150251       3.53116421
H        -5.35325780       0.73699870       4.33321960
H        -4.40991084      -0.73123619       4.46052720
H        -4.72271553      -0.04214629       2.86963393
H        -3.59163245       1.97206232       5.92556201
H        -1.89321432       1.87075460       5.47588590
H        -2.76299082       0.43822247       6.04511496
H        -4.23284522       4.07260913       0.77140014
H        -4.90206875       4.04285503       2.39417153
H        -5.94075994       2.14086982       0.25643101
H        -6.98179511       4.90737267       0.98667686
H        -7.74402789       3.78068350      -0.13014892
H        -6.18344376       4.50995389      -0.52892184
H        -7.07489149       3.11393794       2.90201742
H        -6.53231223       1.47433822       2.50174642
H        -7.95189279       2.15127240       1.71531899
H        -2.26152147      -0.11450852      -3.95873798
H        -3.14467480       0.29080832      -6.24324772
H        -5.39465220       1.23809887      -6.52484400
H        -6.73993929       1.85339443      -4.56036419
H        -5.86291331       1.43126148      -2.29358235
