113
strain_lig_058 ligand at complex geometry  charge=0 uhf=0  from=66|CCCCCCCCN(CC(CC)CCCC)C(=O)COCC(=O)N(CCCCCCCC)CC(CC)CCCC|nitrate
C         1.92663632      -3.40378513       2.10567313
C         1.60515107      -4.65326032       2.91787066
C         2.53979067      -4.87013590       4.10884441
C         2.60718239      -3.75785349       5.16193579
C         1.40726644      -3.67147105       6.11394542
C         0.19287981      -2.88378691       5.61618204
C         0.46779158      -1.38212172       5.55211356
C        -0.79769932      -0.53329114       5.37085884
N        -1.33492719      -0.63090436       4.02423719
C        -2.42622394      -1.56323439       3.74874313
C        -3.72815884      -0.86202175       3.30317987
C        -4.84822949      -1.89667370       3.13512103
C        -4.67429371      -2.76517999       1.89727307
C        -4.15973613       0.30741010       4.21355023
C        -5.05719287      -0.00321958       5.41695213
C        -4.38989344      -0.77157255       6.55297929
C        -5.33227555      -0.92640570       7.74117266
C        -0.82353143       0.01716823       2.99710626
O        -1.22216040      -0.19237740       1.83262475
C         0.24396110       1.10737086       3.20483683
O         0.64927430       1.61104254       1.94038413
C         0.37584537       2.98362121       1.67338445
C        -0.52004424       3.08027731       0.43005822
O        -0.76548593       2.01326454      -0.17145451
N        -0.94426168       4.25854981       0.00078189
C        -0.58023176       5.50258774       0.66220347
C        -1.36348988       5.81838258       1.94128356
C        -0.63430951       6.86615869       2.78755015
C         0.59774095       6.37822298       3.56412498
C         1.90106982       6.36623245       2.76157838
C         3.14992320       6.16495085       3.61890605
C         4.43164256       6.32606137       2.79753801
C         4.54452967       5.35546146       1.62563890
C        -1.60076445       4.33227109      -1.30770650
C        -2.99790046       3.70044585      -1.40841154
C        -3.90024241       4.22630374      -0.28543233
C        -5.17333539       3.40367127      -0.13418292
C        -3.57925004       4.00574026      -2.80071480
C        -3.22987423       2.99041161      -3.89470098
C        -1.80187509       3.01991640      -4.44500634
C        -1.41674417       4.36292146      -5.05482950
H         1.24465717      -3.29408817       1.26019932
H         1.83726258      -2.50546261       2.71407240
H         2.94444722      -3.46475794       1.72504918
H         0.57118200      -4.62462186       3.26198684
H         1.70499701      -5.52587204       2.26887766
H         2.24527001      -5.79490813       4.60817365
H         3.54953026      -5.03089886       3.72353760
H         3.48449951      -3.97217484       5.77932291
H         2.78531416      -2.78716691       4.69289904
H         1.09176378      -4.68387642       6.36714287
H         1.74365062      -3.20474080       7.04344107
H        -0.12209621      -3.24621117       4.64042791
H        -0.62210840      -3.06412562       6.31826260
H         0.94060016      -1.07131802       6.48496690
H         1.16167856      -1.17173967       4.73609472
H        -1.56868921      -0.86997315       6.06546614
H        -0.57782680       0.51481411       5.58807889
H        -2.10254518      -2.21151562       2.92666164
H        -2.59841936      -2.16386331       4.63820434
H        -3.51929328      -0.43237920       2.31450488
H        -4.90427711      -2.53071187       4.02247585
H        -5.79545504      -1.36422877       3.04469623
H        -3.75500906      -3.33638594       1.95705710
H        -5.50612049      -3.46040588       1.80966234
H        -4.64083266      -2.15228935       1.00129695
H        -3.26975518       0.84043529       4.56394600
H        -4.72174024       0.99865296       3.58035632
H        -5.39431856       0.95572874       5.81715723
H        -5.94793901      -0.54034511       5.09150643
H        -4.08853032      -1.76319302       6.20986065
H        -3.49769507      -0.22784304       6.87602529
H        -6.22092209      -1.48258074       7.45273087
H        -4.84089453      -1.45897328       8.55178770
H        -5.64422368       0.04784734       8.10980082
H        -0.17349981       1.90084362       3.83545339
H         1.14225158       0.71280526       3.69724203
H        -0.07576622       3.47494222       2.53616215
H         1.33561305       3.47288674       1.46151611
H         0.48372481       5.46824836       0.88339748
H        -0.74033154       6.32516391      -0.03676541
H        -2.34267284       6.21272712       1.66402657
H        -1.54299750       4.92069605       2.53589517
H        -0.34271583       7.69831945       2.14718259
H        -1.35295780       7.25535976       3.50779310
H         0.74293972       7.05638784       4.40737069
H         0.40128577       5.38966043       3.98837439
H         1.89440857       5.56563339       2.02186160
H         1.98903637       7.31617838       2.22944661
H         3.16010461       6.89818112       4.42677766
H         3.12796681       5.16941029       4.07148306
H         4.48122239       7.34703053       2.41696080
H         5.28576268       6.18419720       3.46141859
H         3.85424851       5.61612262       0.82680845
H         5.55027681       5.38916157       1.21657939
H         4.34165928       4.33676175       1.94731239
H        -1.68486275       5.38517688      -1.57880051
H        -0.94049924       3.84113561      -2.02717923
H        -2.90640225       2.61510421      -1.29251854
H        -3.34601495       4.17260298       0.65480236
H        -4.15038560       5.27262749      -0.47719477
H        -4.92657159       2.35244815       0.00535985
H        -5.74133606       3.74626419       0.72621895
H        -5.81124458       3.49183713      -1.00869811
H        -4.66634832       4.01681511      -2.71807328
H        -3.28035426       5.00887632      -3.10974963
H        -3.43437431       1.98613409      -3.51527790
H        -3.90731247       3.16208708      -4.73495141
H        -1.08279883       2.73329178      -3.67247916
H        -1.74283898       2.25359391      -5.22062771
H        -1.38129384       5.14991813      -4.30526110
H        -0.43712568       4.29888492      -5.52276491
H        -2.14013683       4.64880394      -5.81443460
