104
strain_lig_129 ligand at complex geometry  charge=0 uhf=0  from=63|CCCCN(CCCC)C(=O)COCC(=O)N(CCN(C(=O)COCC(=O)N(CCCC)CCCC)C(C)C)C(C)C|nitrate
C        -7.79548431       2.92302107       1.15982946
C        -6.77160366       2.47958268       2.20196544
C        -5.33672556       2.76417603       1.74508618
C        -4.33078644       2.33265212       2.82154968
N        -2.92657755       2.51692768       2.47813726
C        -2.17287024       3.57100200       3.16934654
C        -2.82493641       4.95161907       3.16216627
C        -2.87450731       5.57822651       1.77320342
C        -3.45455614       6.98741672       1.79904402
C        -2.27124716       1.62769000       1.73974880
O        -1.04418482       1.62574597       1.56488950
C        -3.02769526       0.51092699       0.99348791
O        -2.39716452       0.33094683      -0.27430315
C        -2.86557927       1.23379396      -1.28493902
C        -1.78970227       1.29835274      -2.39340983
O        -0.63172777       0.97746502      -2.07047499
N        -2.08144829       1.70517597      -3.63440202
C        -0.95240162       1.80255452      -4.56646289
C        -1.20174613       1.16596545      -5.93714221
N         0.01011400       0.96003212      -6.70823087
C         0.07524195      -0.08215742      -7.59671653
O         1.07417291      -0.30003529      -8.24650997
C        -1.16238885      -0.97799772      -7.70648849
O        -1.19709611      -1.93891193      -6.66863928
C        -0.66719003      -3.19744046      -7.05428580
C        -1.33130449      -4.28937284      -6.20312543
O        -2.49500153      -4.58116627      -6.37888192
N        -0.55688291      -4.91788280      -5.28419533
C         0.69454774      -4.37390012      -4.81211304
C         0.47809303      -3.01985904      -4.12862867
C         1.75858432      -2.51724195      -3.47607227
C         1.67824035      -1.02537409      -3.16283782
C        -1.02272623      -6.16393472      -4.70159452
C        -1.56578069      -6.05166375      -3.27233586
C        -0.55692782      -5.92865467      -2.12282722
C         0.39852520      -7.11038804      -1.99765114
C         0.98049622       2.04497762      -6.91443665
C         0.31200157       3.39134595      -7.18779776
C         2.04415562       2.11314605      -5.81593349
C        -3.39279795       2.19673681      -4.09473937
C        -4.10688747       1.20201605      -5.02637088
C        -3.31219573       3.55484960      -4.80159346
H        -8.80183713       2.75528710       1.53413962
H        -7.67708167       2.36517450       0.23183423
H        -7.68551870       3.98230558       0.94004777
H        -6.89833226       1.41153669       2.39769049
H        -6.95719063       3.00910822       3.13648723
H        -5.23316537       3.83112574       1.54949173
H        -5.17839907       2.24820173       0.79476512
H        -4.49455612       1.28207149       3.07461148
H        -4.53028577       2.92271407       3.71658245
H        -1.20545862       3.63000244       2.67036955
H        -2.00481054       3.28800651       4.21348995
H        -2.23115429       5.59341421       3.81509535
H        -3.82793886       4.91415153       3.58682440
H        -3.48711253       4.94736387       1.12878523
H        -1.86313025       5.60633196       1.35614589
H        -4.46384522       6.98108417       2.20185759
H        -3.49049983       7.40176568       0.79519723
H        -2.84519680       7.64104929       2.41608524
H        -4.09982969       0.65752383       0.87706365
H        -2.87631840      -0.42103135       1.55075584
H        -3.01098135       2.24075793      -0.86349282
H        -3.81742775       0.84955084      -1.66344303
H        -0.11723152       1.30029077      -4.08241612
H        -0.71396865       2.86007215      -4.66998176
H        -1.89818262       1.78788204      -6.51207641
H        -1.63592971       0.18630664      -5.74162401
H        -1.14003986      -1.46990887      -8.68022718
H        -2.07941650      -0.39161603      -7.65430484
H        -0.94883154      -3.41443290      -8.09146813
H         0.42567276      -3.18797388      -7.00034131
H         1.41423132      -4.26897625      -5.63083314
H         1.10951393      -5.08086352      -4.09438687
H        -0.29547978      -3.10859861      -3.36409861
H         0.12103442      -2.28999974      -4.85182910
H         2.59731307      -2.70899883      -4.15139965
H         1.92364188      -3.08664855      -2.55827308
H         0.76907632      -0.81744338      -2.58745402
H         1.64035466      -0.46738115      -4.09788310
H         2.54323669      -0.71671745      -2.57785479
H        -0.21951488      -6.89998514      -4.76086816
H        -1.84519118      -6.50345597      -5.33184956
H        -2.17658247      -6.93503988      -3.08019941
H        -2.22566713      -5.18499402      -3.25611879
H        -1.13341275      -5.87184045      -1.19206714
H         0.00961120      -4.99816556      -2.20282896
H        -0.15756764      -8.03563896      -1.88046479
H         1.03612201      -6.98394798      -1.12518591
H         1.03837787      -7.20612001      -2.86915351
H         1.50676964       1.75040172      -7.82914322
H        -0.17989943       3.81670920      -6.31732844
H        -0.41676615       3.28974143      -7.98665516
H         1.07125729       4.09482911      -7.51539552
H         1.64768431       2.42346742      -4.85458892
H         2.80700594       2.82469277      -6.11470528
H         2.51884863       1.14269729      -5.70832473
H        -4.00844869       2.32512866      -3.19941210
H        -3.93313254       1.42696679      -6.07444065
H        -5.17951358       1.25969059      -4.85596671
H        -3.77420626       0.18636789      -4.84431730
H        -2.74483839       3.50783427      -5.72608363
H        -2.87593294       4.32954825      -4.18427717
H        -4.32623828       3.87007581      -5.03904055
