43
strain_lig_163 ligand at complex geometry  charge=0 uhf=0  from=66|O=C(COCC(=O)N1CCCCC1)N1CCCCC1|water
O        -1.07944300       1.85140071       0.17740793
C        -0.70179364       2.67614880      -0.68925808
C        -0.14733198       2.11603282      -2.01484827
O        -0.20579054       0.68124129      -2.01220545
C        -1.22486279       0.07808611      -2.83244568
C        -2.25430265      -0.67189265      -1.97044189
O        -2.06897825      -0.68716024      -0.72562980
N        -3.25360886      -1.32811690      -2.51459535
C        -4.17791408      -1.97479143      -1.57507838
C        -5.19641629      -2.83898939      -2.29496450
C        -5.97928408      -2.00381240      -3.30984474
C        -5.05279403      -1.09098074      -4.13398726
C        -3.58093050      -1.45788332      -3.92845097
N        -0.72433687       3.97586821      -0.48751881
C        -1.32393377       4.50429656       0.73970106
C        -2.64622220       5.19286026       0.41448801
C        -2.43413528       6.25044624      -0.65952673
C        -1.79851838       5.62448479      -1.89528797
C        -0.46071625       4.99365430      -1.49553230
H         0.91802987       2.38084527      -2.09748335
H        -0.70518243       2.51733042      -2.86683977
H        -0.71975448      -0.64229585      -3.49057160
H        -1.72404660       0.82957756      -3.44957766
H        -4.68566946      -1.19319463      -0.99766248
H        -3.58445715      -2.57022613      -0.87398105
H        -5.88498858      -3.24337411      -1.55424589
H        -4.71161382      -3.69240910      -2.77510057
H        -6.70385909      -1.37842021      -2.78960218
H        -6.53347884      -2.67785016      -3.96110943
H        -5.19534080      -0.04218435      -3.85924363
H        -5.28105829      -1.18279164      -5.19337358
H        -2.93073133      -0.81953042      -4.52814210
H        -3.40846105      -2.49808521      -4.23014491
H        -0.62401807       5.21485901       1.18329037
H        -1.48351481       3.68034951       1.43485899
H        -3.04346994       5.64881721       1.31808049
H        -3.36922448       4.45413824       0.07012722
H        -1.77942459       7.03391062      -0.27877124
H        -3.38174221       6.70770434      -0.92858131
H        -1.62436433       6.37391919      -2.66484818
H        -2.45481944       4.85505445      -2.31146132
H         0.18612609       5.75274725      -1.04008963
H         0.05901918       4.56448492      -2.35337670
