161
strain_lig_037 ligand at complex geometry  charge=0 uhf=0  from=67|CCCCCCCCCCCCN(CCCCCCCCCCCC)C(=O)COCC(=O)N(CCCCCCCCCCCC)CCCCCCCCCCCC|nitrate
C        -6.17897016      -4.56553706       0.03259487
C        -5.17336108      -3.83610516       0.91424851
C        -5.88024841      -2.79752301       1.78600377
C        -4.94401204      -1.78880429       2.45387242
C        -4.33488490      -0.74531316       1.50981497
C        -5.39586660       0.06272224       0.74694005
C        -5.56396683      -0.34518682      -0.72094628
C        -4.56158012       0.39190158      -1.60417988
C        -4.59164866      -0.01770825      -3.07468061
C        -3.83392818       1.02331284      -3.91101906
C        -3.14055098       0.48231953      -5.15979755
C        -1.74400948      -0.06445103      -4.85871506
N        -1.76952480      -1.30659273      -4.08895822
C        -2.25382138      -2.50926651      -4.76005716
C        -1.73716892      -2.73588898      -6.19177559
C        -1.13588108      -4.12940084      -6.39768245
C        -2.05348642      -5.29789182      -6.04120282
C        -1.52892411      -6.63228438      -6.58097959
C        -0.15426039      -7.04515129      -6.04702160
C        -0.17436221      -7.60861988      -4.62049197
C        -0.44514339      -9.11350459      -4.60945205
C        -0.62668936      -9.69561308      -3.20706223
C         0.60701725      -9.67661032      -2.29672459
C         1.63785732     -10.78805945      -2.53261015
C         2.62073786     -10.54649151      -3.67430620
C        -1.57821309      -1.23873811      -2.77751420
O        -1.24212679      -0.20199343      -2.17323031
C        -1.73864679      -2.44647480      -1.84226660
O        -0.61712144      -2.45705554      -0.94880763
C         0.56216625      -3.07128094      -1.49186864
C         1.70810109      -2.09137526      -1.21152379
O         1.40847213      -0.87854233      -1.33574091
N         2.89366110      -2.50247801      -0.80634362
C         3.28944376      -3.91973260      -0.89239335
C         4.68274226      -4.28746059      -1.43622269
C         4.91865955      -4.01588585      -2.92270834
C         6.39832144      -4.19129260      -3.32965245
C         6.74745629      -3.43850445      -4.63676573
C         7.87040525      -2.39012761      -4.51673413
C         8.04552550      -1.56907991      -5.81721141
C         7.94438063      -0.03812121      -5.66938335
C         9.25085974       0.75138484      -5.59032989
C         8.97604724       2.25026272      -5.38517131
C         8.43594069       2.62143607      -3.98801883
C         7.09073633       3.34147251      -4.04241506
C         3.84197238      -1.51755732      -0.25625434
C         3.24260171      -0.29312365       0.47218397
C         4.19520136       0.26914130       1.54021587
C         3.92823588       1.68706355       2.07056270
C         2.82990837       1.76732331       3.14686156
C         3.17871337       2.54072426       4.44196921
C         2.20389757       3.66938841       4.80677982
C         2.25618635       4.91271126       3.91586893
C         3.57552434       5.69068557       4.01066958
C         4.59827059       5.24081829       2.97292124
C         5.90621541       6.02420478       3.01972361
C         6.98714634       5.32742974       2.19939041
H        -5.68878050      -5.33721258      -0.55212204
H        -6.67497916      -3.87254003      -0.64177147
H        -6.93998757      -5.03435708       0.64783657
H        -4.41865186      -3.33825524       0.29723710
H        -4.65902713      -4.56304556       1.55228652
H        -6.43089619      -3.32639109       2.56456970
H        -6.62158952      -2.26663365       1.18524888
H        -4.14449065      -2.33177424       2.96416965
H        -5.51157470      -1.26127821       3.22510205
H        -3.63932788      -1.21693707       0.80686332
H        -3.73665354      -0.06654485       2.12232531
H        -5.13982948       1.12320990       0.77215925
H        -6.34973500      -0.02666064       1.26503740
H        -6.57279573      -0.09964575      -1.06261771
H        -5.43536246      -1.42220361      -0.82476142
H        -4.78740950       1.45866882      -1.55224052
H        -3.54664646       0.24174260      -1.22297680
H        -5.62625000      -0.10142985      -3.41128550
H        -4.15348331      -1.01078818      -3.18397711
H        -3.06428153       1.47969568      -3.28685663
H        -4.53745671       1.80722404      -4.19267406
H        -3.01665601       1.29780418      -5.87162091
H        -3.75321587      -0.28300680      -5.63092785
H        -1.18940562       0.66899122      -4.27224231
H        -1.21063525      -0.23389507      -5.79361278
H        -3.34780761      -2.48729014      -4.77306136
H        -1.95456707      -3.37168350      -4.17091574
H        -0.94804838      -2.02465557      -6.42824365
H        -2.54852295      -2.58176350      -6.90429434
H        -0.20786404      -4.19310669      -5.82592311
H        -0.87466589      -4.21014725      -7.45255645
H        -3.03826687      -5.12005473      -6.47696063
H        -2.17583691      -5.36835737      -4.95816000
H        -1.46531533      -6.55561708      -7.66731177
H        -2.25065983      -7.41454384      -6.34176113
H         0.52044728      -6.18990384      -6.09836435
H         0.25916478      -7.80880581      -6.70821489
H        -0.93666466      -7.09754742      -4.02551319
H         0.79256934      -7.41574452      -4.14854481
H         0.36980174      -9.62031511      -5.12471989
H        -1.35992406      -9.31018108      -5.17325610
H        -0.97121566     -10.72777404      -3.30123680
H        -1.42455811      -9.13202088      -2.71207706
H         0.23994845      -9.80280084      -1.27479106
H         1.10148457      -8.70286272      -2.35387484
H         1.11873705     -11.73443272      -2.69696613
H         2.21955874     -10.90031074      -1.61324103
H         2.13799217     -10.60559133      -4.64547876
H         3.39981259     -11.30566571      -3.64608677
H         3.09285505      -9.56951156      -3.58047043
H        -1.85629391      -3.41841594      -2.32083272
H        -2.61075876      -2.23871796      -1.20384520
H         0.48337988      -3.21201984      -2.57819696
H         0.69639360      -4.03179237      -0.98614265
H         2.57863155      -4.41706751      -1.55209581
H         3.20748477      -4.34945297       0.11297811
H         4.77300523      -5.35923068      -1.27337157
H         5.48122131      -3.81772369      -0.86907791
H         4.58702602      -3.00889831      -3.17082132
H         4.31077621      -4.70334096      -3.51100047
H         6.59635429      -5.25691059      -3.45467391
H         7.04810570      -3.83435907      -2.52174780
H         5.84504930      -2.94709813      -5.00195374
H         7.03927311      -4.14945583      -5.41047596
H         8.79580063      -2.91506019      -4.27944145
H         7.67428591      -1.72069704      -3.67710293
H         7.27207544      -1.87967284      -6.51847742
H         8.99426230      -1.82199872      -6.28946993
H         7.36992076       0.20259242      -4.77888140
H         7.38852141       0.34896285      -6.52448716
H         9.79935094       0.62605207      -6.52635579
H         9.87497580       0.37393549      -4.77809989
H         8.25644930       2.57386244      -6.14257161
H         9.90294808       2.79681597      -5.56706238
H         9.14722346       3.27695838      -3.48008857
H         8.33819528       1.72194485      -3.37492087
H         7.18153562       4.26023651      -4.61264451
H         6.75083203       3.60091223      -3.04174634
H         6.33185959       2.72522948      -4.51770857
H         4.47235732      -1.16776696      -1.06703093
H         4.46775432      -2.06572884       0.43726145
H         2.29821116      -0.58942169       0.94334172
H         3.07089225       0.49930816      -0.25629804
H         5.17981660       0.29219280       1.09166882
H         4.21915809      -0.40673590       2.38684854
H         3.69436002       2.36252011       1.24611636
H         4.86926229       2.03416951       2.50227389
H         2.58943085       0.74165595       3.43117337
H         1.94836485       2.22056418       2.69022969
H         4.18367135       2.96029834       4.39565167
H         3.18515602       1.82890591       5.27262607
H         2.41399678       3.97993081       5.83301271
H         1.17962114       3.28166435       4.81122088
H         1.44323219       5.56772914       4.23899450
H         2.07056430       4.63882193       2.87345098
H         3.99602801       5.58447948       5.01229775
H         3.37635648       6.75347423       3.85889265
H         4.15083051       5.33491901       1.98376258
H         4.83153717       4.18748207       3.10154356
H         6.23768994       6.11227306       4.05564659
H         5.74548373       7.03278778       2.63910472
H         7.21931117       4.35563535       2.63332278
H         7.90013467       5.91784291       2.18397931
H         6.65263828       5.17226558       1.17466569
