57
strain_lig_148 ligand at complex geometry  charge=0 uhf=0  from=58|CCN(C(=O)c1cccc(C(=O)N(CC)c2ccccc2C)n1)c1ccccc1C|nitrate
C        -0.84986717       3.00253683      -4.38575889
C        -1.64792448       3.33236228      -3.13036389
N        -2.61680365       2.29840294      -2.75468968
C        -2.28201532       1.43288951      -1.79464858
O        -1.10752834       1.41496533      -1.38911168
C        -3.26063036       0.53278523      -1.06889235
C        -4.62666533       0.37044558      -1.29396514
C        -5.31116262      -0.53024189      -0.48665683
C        -4.66290303      -1.21147272       0.53933597
C        -3.30914754      -0.93852660       0.75343109
C        -2.35481971      -1.57589053       1.75961660
O        -1.13626699      -1.45782018       1.51651421
N        -2.73416302      -2.29746239       2.82762506
C        -4.05779738      -2.28086314       3.43529827
C        -4.78216019      -3.61587942       3.26568333
C        -1.80856718      -3.29839692       3.30845801
C        -1.20143656      -4.09041082       2.33079166
C        -0.33962001      -5.11456352       2.66000306
C        -0.09384521      -5.40776732       3.98876759
C        -0.69991925      -4.63969552       4.95597543
C        -1.52972883      -3.55973021       4.65384793
C        -2.02102525      -2.74300631       5.80888970
N        -2.65493816      -0.11702669      -0.07009150
C        -3.81181907       2.27605542      -3.52880843
C        -4.76577196       3.25628143      -3.28964766
C        -5.91673923       3.29990684      -4.05419190
C        -6.09107844       2.35776264      -5.05616663
C        -5.13650111       1.38320939      -5.29531563
C        -3.96962470       1.32748276      -4.54152361
C        -2.90705423       0.31177504      -4.82249710
H        -0.14287408       3.80353131      -4.58339080
H        -1.50109637       2.92929089      -5.25219399
H        -0.30578986       2.07001342      -4.25279015
H        -2.20088826       4.26277438      -3.29035145
H        -0.96848842       3.44915590      -2.28238495
H        -5.13922500       0.89185517      -2.08540945
H        -6.36395205      -0.71582062      -0.65932267
H        -5.21937868      -1.94633642       1.10531363
H        -4.61516188      -1.43519560       3.03710189
H        -3.93652686      -2.06867106       4.49562222
H        -4.84515048      -3.91061835       2.22123559
H        -5.79037674      -3.55792054       3.66800782
H        -4.25385803      -4.40988871       3.78879035
H        -1.41783393      -3.88940333       1.29073425
H         0.12367727      -5.70409926       1.88846766
H         0.55769653      -6.21992056       4.26053032
H        -0.51749592      -4.85681595       5.99405078
H        -1.34606397      -2.86278207       6.65586853
H        -3.00426829      -3.08573197       6.13287862
H        -2.06862768      -1.68965534       5.54563763
H        -4.58619954       3.96655862      -2.49537055
H        -6.66182587       4.06245639      -3.87719531
H        -6.98116761       2.39265398      -5.65841826
H        -5.29147514       0.65849717      -6.08169440
H        -3.25994191      -0.39051297      -5.56911222
H        -2.61584068      -0.23159985      -3.92266600
H        -2.01713835       0.79537904      -5.21724430
