106
strain_lig_029 ligand at complex geometry  charge=0 uhf=0  from=64|CCCCCCCCCCCCN(C)C(=O)C1CC(OC)CC(C(=O)N(C)CCCCCCCCCCCC)O1|nitrate
C         6.33793324      -6.19053933       2.31471274
C         6.52222624      -4.93632924       1.46813441
C         5.44497581      -3.87876322       1.72500922
C         3.98446781      -4.32052916       1.58155381
C         3.51150508      -4.69273124       0.17127525
C         1.97153398      -4.75752302       0.11649005
C         1.30629084      -5.96787007      -0.55723557
C         1.58503086      -6.23141246      -2.04030842
C         0.65101195      -5.63651202      -3.12453582
C        -0.52688815      -4.73579041      -2.71546756
C        -0.84895366      -3.79193376      -3.88473914
C        -2.19424047      -3.04526247      -3.83530162
N        -2.78816476      -2.89542372      -2.50786441
C        -4.01602071      -3.65493415      -2.34228115
C        -2.23295887      -2.09520075      -1.61572685
O        -1.13182477      -1.52809649      -1.79166360
C        -2.95702724      -1.85576658      -0.27735153
C        -2.57452166      -2.98626374       0.71191393
C        -1.99255054      -2.33946795       1.97029005
O        -0.71818301      -1.72437862       1.70167463
C         0.35590274      -2.57052963       2.11394751
C        -2.98520628      -1.28395130       2.46268867
C        -3.07949111      -0.16655684       1.39672313
C        -2.22716201       1.00210797       1.91342883
O        -1.05947565       1.10642838       1.47470155
N        -2.69023759       1.76894281       2.88698966
C        -4.02674553       1.72415129       3.44061952
C        -1.77072807       2.64405444       3.61960046
C        -2.11214199       4.12810001       3.52123702
C        -1.70359257       4.74968485       2.18690465
C        -2.38401240       6.10306082       1.96063476
C        -3.87109861       5.98103051       1.62007061
C        -4.08301459       5.44905439       0.20351701
C        -5.51730828       5.01971046      -0.10431687
C        -5.92204788       3.75892513       0.66633559
C        -7.14880879       3.03881438       0.08630712
C        -6.81573449       1.82158678      -0.78023546
C        -6.06522485       2.16322514      -2.06505898
C        -5.87354977       0.93374953      -2.94431405
O        -2.48262300      -0.58547511       0.17544644
H         7.22746369      -6.81221949       2.27354777
H         5.50607858      -6.77809401       1.94101490
H         6.14836145      -5.93296125       3.35427581
H         6.54374776      -5.20901643       0.41198623
H         7.48539825      -4.47500134       1.70338524
H         5.63233856      -3.02293745       1.06709764
H         5.56442984      -3.52668731       2.75350651
H         3.37220414      -3.49010945       1.95014736
H         3.79771540      -5.16259187       2.24724365
H         3.94075551      -5.65650331      -0.09551545
H         3.88522055      -3.94845610      -0.53666129
H         1.58710996      -3.82331105      -0.30607493
H         1.63297609      -4.81450873       1.15245665
H         0.23030349      -5.88142343      -0.39925354
H         1.63372327      -6.84560538      -0.00057685
H         1.59382946      -7.31248571      -2.17060009
H         2.60265900      -5.91027797      -2.25087146
H         0.24374553      -6.45939911      -3.71204743
H         1.27291668      -5.06783544      -3.81340196
H        -0.28861459      -4.13037799      -1.83793521
H        -1.39323587      -5.35250809      -2.46806610
H        -0.84831195      -4.36530811      -4.81052616
H        -0.05201134      -3.05183695      -3.95948136
H        -2.93435733      -3.56148525      -4.44456093
H        -2.05232185      -2.04808846      -4.25766023
H        -3.86380206      -4.65907910      -2.74246711
H        -4.82577552      -3.18142638      -2.90443778
H        -4.31816554      -3.76583282      -1.30724664
H        -4.04443728      -1.79470337      -0.41663953
H        -1.84327477      -3.65773343       0.25751497
H        -3.44455038      -3.57798836       1.00030127
H        -1.86066743      -3.09917363       2.74573077
H         0.38180872      -2.65313356       3.20769985
H         1.28053752      -2.12124686       1.74029286
H         0.23217039      -3.56561009       1.68040831
H        -2.63383141      -0.88270022       3.41330012
H        -3.95419239      -1.75664106       2.62188856
H        -4.11677210       0.13150953       1.19754438
H        -4.65256694       0.96931019       2.98396295
H        -4.51737002       2.68862941       3.30668500
H        -3.96717927       1.51883075       4.51030524
H        -0.76871496       2.46722604       3.22602114
H        -1.81280155       2.33906418       4.66991166
H        -1.58573889       4.64814769       4.32101013
H        -3.17680969       4.27077275       3.70030646
H        -1.94892959       4.06813283       1.36966483
H        -0.61887060       4.88119883       2.18448122
H        -1.87887790       6.62658483       1.14643560
H        -2.27346924       6.70450090       2.86254817
H        -4.34149308       6.96161534       1.69616994
H        -4.36804134       5.34202002       2.34948373
H        -3.42848898       4.58967543       0.02456032
H        -3.78627519       6.23450584      -0.49236387
H        -5.60307485       4.84417043      -1.17807582
H        -6.19999806       5.83164858       0.14630503
H        -6.14442766       4.05024393       1.69325539
H        -5.07783391       3.06015847       0.69523687
H        -7.73762712       3.74238444      -0.50309820
H        -7.78136333       2.69761702       0.90817369
H        -7.75255849       1.32929405      -1.04904893
H        -6.22925440       1.10439509      -0.19260225
H        -5.09230326       2.59849517      -1.82280239
H        -6.63735896       2.90865629      -2.61730662
H        -5.25602847       0.18936156      -2.44072700
H        -5.40383421       1.19597424      -3.88883437
H        -6.83721917       0.48529213      -3.16616208
