38
strain_lig_103 ligand at complex geometry  charge=0 uhf=0  from=63|CCCCCCCCNC(=O)c1cnccn1|nitrate
C        -6.38406431       7.65404422       4.30936478
C        -5.96425985       9.10312340       4.34175526
C        -5.54396262       9.67682083       2.98216849
C        -4.19421813       9.11888686       2.51693111
C        -4.26392894       7.85539166       1.67919633
C        -2.88581851       7.42246092       1.17011078
C        -2.93488761       6.24363599       0.19472439
C        -3.09910923       4.89529722       0.89651715
N        -3.29000877       3.82089152      -0.06458161
C        -2.50117888       2.77212423      -0.18214417
O        -1.49395594       2.49122322       0.48391312
C        -2.79664130       1.62910265      -1.09881398
C        -3.42647356       0.54811514      -0.50229494
N        -3.00877285      -0.68805514      -0.86562758
C        -2.59890372      -0.80995302      -2.17543759
C        -2.01256090       0.26325055      -2.78409250
N        -1.85089112       1.40230202      -2.04878682
H        -7.11256951       7.47298317       3.52308008
H        -5.53552091       6.98155009       4.17317539
H        -6.82502149       7.38415897       5.26984786
H        -5.17876999       9.25277447       5.08628895
H        -6.81527371       9.71310704       4.66867875
H        -6.30746060       9.47867791       2.22899847
H        -5.46522130      10.75811907       3.09515948
H        -3.52387956       8.97316665       3.36768922
H        -3.74502011       9.91002801       1.90488056
H        -4.93696427       8.01938172       0.83355218
H        -4.69504294       7.04590051       2.27867189
H        -2.23415473       7.17752297       2.01036889
H        -2.43979634       8.27046161       0.64829150
H        -2.00889529       6.22216335      -0.38133280
H        -3.75922378       6.39275920      -0.50618600
H        -3.97488076       4.91682235       1.55227289
H        -2.21385780       4.65026076       1.48549945
H        -4.05098125       3.93406065      -0.72062665
H        -4.18612004       0.64627721       0.26549954
H        -2.78606758      -1.75501845      -2.66706658
H        -1.66744603       0.27276221      -3.80891091
