70
strain_lig_008 ligand at complex geometry  charge=0 uhf=0  from=57|CC(C)CCCCCP(=O)(CC(=O)N(CC(C)C)CC(C)C)c1ccccc1|nitrate
C        -2.87900264      -1.04630941      -7.64429225
C        -1.74676443      -0.47808463      -8.49281639
C        -2.34599168       0.23057955      -9.70890759
C        -0.87120269       0.50896720      -7.71352511
C         0.02240612      -0.08361543      -6.62349159
C        -0.67598160      -0.39555871      -5.29113486
C        -0.13415909       0.33437960      -4.06518843
C        -0.30186125       1.84098768      -4.13506805
P        -0.09634647       2.67458870      -2.52005280
O        -0.76934583       1.90543024      -1.42780587
C         1.69269461       2.94450018      -2.06719917
C         1.71333594       3.27459400      -0.59285799
O         1.30030031       2.39601673       0.18336296
N         2.10876828       4.47784461      -0.14529491
C         2.64142142       5.52575298      -1.00543447
C         4.17045222       5.53523630      -1.16753721
C         4.54002260       6.62237927      -2.17617300
C         4.71177899       4.18317226      -1.61315090
C         1.75388203       4.89085667       1.21674959
C         2.68052260       4.55614537       2.40427244
C         4.16191018       4.84435155       2.19114907
C         2.49987021       3.12128462       2.88477873
C        -0.69196831       4.36793663      -2.84449926
C        -0.59641205       5.28979731      -1.80810794
C        -0.99194488       6.60013323      -1.98535091
C        -1.47790292       7.01008017      -3.21455637
C        -1.54259469       6.10800791      -4.26125397
C        -1.15208816       4.79084432      -4.08652250
H        -3.58077477      -1.59286099      -8.26719822
H        -3.42379266      -0.24244485      -7.15297402
H        -2.49838833      -1.72991984      -6.89778915
H        -1.12105162      -1.30139574      -8.85524113
H        -2.95921790       1.07291057      -9.38990539
H        -2.97798121      -0.45006341     -10.27821835
H        -1.56740753       0.60356036     -10.37231358
H        -1.51315377       1.27620193      -7.28025348
H        -0.22664703       1.00546352      -8.43995715
H         0.82586345       0.62786210      -6.45423674
H         0.47663512      -0.99643578      -7.00799167
H        -0.54955476      -1.45076667      -5.07037898
H        -1.73867142      -0.17440370      -5.37226745
H         0.90889383       0.07889453      -3.92138977
H        -0.67190986      -0.03201401      -3.17901050
H        -1.34597147       2.04521631      -4.39985246
H         0.34451611       2.31596655      -4.87410590
H         2.13555591       3.66466412      -2.73855442
H         2.18917285       1.98777891      -2.19481099
H         2.35947256       6.49160243      -0.58479603
H         2.19261461       5.48078346      -1.99695698
H         4.62268585       5.79172382      -0.21117967
H         4.10920606       6.40390923      -3.15195476
H         5.61945358       6.70092204      -2.29125402
H         4.16423468       7.58905046      -1.85052137
H         4.38933003       3.96493303      -2.62793154
H         4.37117440       3.38445287      -0.95684720
H         5.79798054       4.18604259      -1.60163132
H         0.77893404       4.44896890       1.44432181
H         1.62720943       5.97502870       1.19061078
H         2.33869358       5.21412016       3.20989991
H         4.58392184       4.20928177       1.41646835
H         4.69561109       4.63891826       3.11670777
H         4.33548988       5.88876552       1.94704275
H         2.81232659       2.41614583       2.12152224
H         1.45974832       2.92615844       3.13596773
H         3.08797023       2.95455410       3.78410162
H        -0.20999859       4.96108233      -0.85528967
H        -0.91459513       7.29999021      -1.17109181
H        -1.79967749       8.02634315      -3.36685909
H        -1.89118679       6.43306347      -5.22659005
H        -1.20634585       4.11775480      -4.92842800
