146
strain_lig_083 ligand at complex geometry  charge=0 uhf=0  from=63|CCCCCCCCN(CCCCCCCC)C(=O)COCC(=O)NCCCCCCNC(=O)COCC(=O)N(CCCCCCCC)CCCCCCCC|nitrate
C        -3.08392468      -6.04326777      -6.13937670
C        -3.41594584      -5.05530755      -5.02915422
C        -4.17270117      -5.69377439      -3.86542651
C        -4.33819450      -4.70560198      -2.71068071
C        -5.27390311      -5.22592222      -1.61858832
C        -5.03746643      -4.59296301      -0.24458414
C        -5.65934870      -3.20743744      -0.02152130
C        -5.12614448      -2.02633985      -0.85732750
N        -4.94526722      -0.81553140      -0.05354602
C        -6.10638478      -0.33908976       0.68914874
C        -6.87546283       0.83256153       0.04513210
C        -8.19936314       0.43515376      -0.61957181
C        -9.40672092       0.37154105       0.32351275
C        -9.49376066      -0.86174346       1.23307421
C        -8.92233603      -0.68019878       2.64390694
C        -9.82373559       0.12258937       3.58429584
C        -9.32382223       0.07861656       5.02560412
C        -3.77435146      -0.17488693      -0.02815195
O        -2.77798668      -0.51946255      -0.67785242
C        -3.63628706       1.02796256       0.91408472
O        -2.38353215       1.68619316       0.74750399
C        -2.42968086       2.87608129      -0.03416403
C        -2.08193893       2.60238826      -1.50222219
O        -1.43978270       1.58293778      -1.81319818
N        -2.53809786       3.51747876      -2.33728121
C        -2.49644728       3.49600622      -3.79094772
C        -2.04986837       4.82787665      -4.38710752
C        -3.01971497       5.99235067      -4.14837544
C        -3.00204205       6.54199908      -2.71432447
C        -3.30730091       8.04001201      -2.63036036
C        -3.52756673       8.49623503      -1.18005751
N        -2.29135498       8.73956440      -0.45386484
C        -1.53142973       7.79426252       0.13114542
O        -1.79289401       6.60558515       0.11952545
C        -0.26896899       8.38063692       0.78164104
O         0.58910349       7.34162237       1.17965328
C         1.82087079       7.78389788       1.73387866
C         2.62433969       6.49767507       2.00215143
O         2.90806150       5.78593474       1.04135006
N         2.94366330       6.15742923       3.25701869
C         2.56763699       6.90500233       4.44807199
C         1.12542725       6.57188524       4.88291543
C         0.21508966       7.75268182       5.22611969
C         0.58431084       8.56696164       6.46654622
C         1.81837717       9.46521333       6.35751080
C         1.72461849      10.48757316       5.22614424
C         3.04903846      11.19764946       4.96257573
C         2.98327250      12.05586830       3.70616400
C         3.48147523       4.82250688       3.49808306
C         4.98866764       4.76597586       3.77024989
C         5.90658376       5.18644736       2.62329496
C         5.78658209       4.33033432       1.36326039
C         6.69906762       4.88148200       0.26906433
C         6.52023700       4.25925678      -1.12057497
C         7.36659879       3.01533625      -1.40760375
C         6.78353975       1.71474790      -0.86583156
H        -2.58915947      -5.53857716      -6.96769790
H        -2.43136614      -6.83305283      -5.77443512
H        -3.98955632      -6.50307047      -6.52269929
H        -2.48819329      -4.60276563      -4.66225269
H        -4.02746381      -4.25286777      -5.44616033
H        -5.15164889      -6.01842560      -4.21885770
H        -3.63578440      -6.58066899      -3.52170266
H        -3.35054885      -4.50910553      -2.27765635
H        -4.71693182      -3.76278508      -3.10731640
H        -6.31271441      -5.07414622      -1.91334846
H        -5.11914260      -6.30157324      -1.51220136
H        -5.48454733      -5.24612189       0.51187704
H        -3.96059545      -4.57662865      -0.04491684
H        -6.73038548      -3.30958758      -0.19289051
H        -5.53198930      -2.97395057       1.03794641
H        -4.15746766      -2.25014379      -1.30150658
H        -5.82380084      -1.79601764      -1.66699799
H        -6.78550259      -1.18206271       0.78163119
H        -5.76728155      -0.05913021       1.68520577
H        -7.10780303       1.56916041       0.81599964
H        -6.23935214       1.31827214      -0.69804603
H        -8.41456659       1.18803468      -1.38075965
H        -8.08482477      -0.51698859      -1.13687394
H        -9.41813213       1.27225302       0.93554555
H       -10.29845885       0.39544140      -0.30512547
H       -10.54135082      -1.14741586       1.33518884
H        -8.99460107      -1.70072040       0.74135303
H        -8.77746903      -1.67251571       3.07811582
H        -7.94761789      -0.19223455       2.58979598
H        -9.87226395       1.16250459       3.25914322
H       -10.83718467      -0.27965974       3.55139902
H        -8.33003001       0.51729072       5.11458306
H        -9.99534524       0.63600740       5.67329240
H        -9.28159674      -0.94829113       5.38511125
H        -4.46853088       1.72233369       0.77193403
H        -3.64496588       0.67201875       1.95299481
H        -3.41647891       3.34621906       0.05140060
H        -1.67253773       3.54773705       0.38795823
H        -2.95133341       4.35713192      -1.94724403
H        -1.83420104       2.69248048      -4.11193609
H        -3.50074967       3.27508365      -4.16270123
H        -1.05635495       5.08700563      -4.01678336
H        -1.97469402       4.64749935      -5.45943375
H        -2.75277945       6.79381945      -4.83855254
H        -4.03142992       5.67603495      -4.40872398
H        -3.77060991       6.04374362      -2.11436269
H        -2.02935930       6.35734483      -2.25614997
H        -2.50340044       8.62726680      -3.07888425
H        -4.22330262       8.24210288      -3.18492426
H        -4.09270987       9.42814472      -1.16926912
H        -4.10363568       7.73468261      -0.64593189
H        -2.01332315       9.70357501      -0.36545761
H         0.23175646       9.03438613       0.04774596
H        -0.56310509       8.99144997       1.64831029
H         2.36910986       8.39796441       0.99861397
H         1.63622431       8.39407822       2.62119104
H         3.26185436       6.61696925       5.23759868
H         2.70577080       7.96790547       4.26580707
H         0.65558123       6.04260863       4.05072399
H         1.16187168       5.89413005       5.73632091
H         0.12554507       8.40548235       4.35814295
H        -0.78151191       7.34114639       5.40312440
H        -0.27445069       9.19633294       6.70859195
H         0.72443275       7.87675206       7.29864200
H         1.92792684       9.99972487       7.30175638
H         2.71707227       8.85912819       6.23876086
H         1.42100792       9.99180798       4.30104522
H         0.95357137      11.22215765       5.46348542
H         3.31082385      11.81687384       5.82006275
H         3.83702742      10.44974640       4.84595341
H         2.21362295      12.81628627       3.80286339
H         3.93396277      12.54863200       3.52830874
H         2.75096016      11.44531547       2.83463945
H         2.96984083       4.42439900       4.37887188
H         3.22146307       4.20961026       2.63076524
H         5.20572221       5.39768189       4.63312366
H         5.22020579       3.73526779       4.04960670
H         5.71568231       6.22852804       2.36089588
H         6.93379989       5.12231187       2.98763556
H         6.04496061       3.29721186       1.60439913
H         4.75675320       4.36751653       1.00708687
H         6.48050319       5.94716654       0.18536156
H         7.73972237       4.79023277       0.58131736
H         5.46182755       4.03209283      -1.28300840
H         6.80343891       5.01445892      -1.85497244
H         7.47533969       2.91230668      -2.48924550
H         8.36588487       3.16071661      -0.99603469
H         6.67012570       1.76317339       0.21515331
H         5.81202561       1.51234584      -1.31924035
H         7.44534176       0.88401605      -1.10144753
