137
strain_lig_036 ligand at complex geometry  charge=0 uhf=0  from=60|CCCCCCCCCCCCN(CCCCCCCCCCCC)C(=O)COCC(=O)N(CCCCCCCC)CCCCCCCC|nitrate
C        -5.64865070      -7.77350326      -8.56136930
C        -4.97910628      -6.53302209      -7.99096848
C        -5.03779687      -6.44786347      -6.46724761
C        -4.18660831      -7.48556530      -5.72889282
C        -4.12186896      -7.13476460      -4.24165026
C        -3.52862255      -8.19568363      -3.31170251
C        -2.05318516      -8.56404238      -3.49681076
C        -1.04827477      -7.40608859      -3.55427225
C        -1.11285548      -6.32931210      -2.46233043
C        -0.52184561      -6.71833341      -1.10085129
C        -0.00053812      -5.48617759      -0.31925057
C        -0.60827052      -5.23811188       1.07735735
N        -1.73317563      -4.29295609       1.09550974
C        -3.07526322      -4.83612293       1.31933701
C        -3.72397457      -5.31623938       0.01570035
C        -5.16302582      -5.82480048       0.15885943
C        -5.34684671      -6.99141510       1.12814414
C        -4.46863924      -8.20978275       0.84581079
C        -4.49570098      -9.19081595       2.01894425
C        -3.38741113     -10.24378675       1.92185269
C        -3.02798309     -10.86199618       3.28064668
C        -1.79161298     -10.22934962       3.93203124
C        -1.89123668      -8.72808776       4.23024656
C        -2.80406924      -8.39286967       5.40951349
C        -2.93177348      -6.88617177       5.60901584
C        -1.49987379      -2.99945307       0.91135598
O        -0.37078799      -2.49249276       0.72789423
C        -2.64022214      -1.98037188       0.78185707
O        -2.34267260      -1.26528534      -0.41707420
C        -2.54612589      -2.09925982      -1.56005089
C        -1.46162809      -1.87793375      -2.60303344
O        -0.41532768      -1.28454133      -2.27568466
N        -1.69865271      -2.32789256      -3.83265053
C        -2.66824804      -3.36766533      -4.20134184
C        -4.14624624      -3.24980567      -3.79983050
C        -4.81016601      -1.89220559      -4.10146214
C        -5.67018408      -1.23483116      -2.99536775
C        -6.30525606      -2.14725595      -1.94396372
C        -6.98786026      -1.33523327      -0.84001935
C        -7.47856285      -2.23789613       0.28845881
C        -8.17331152      -1.48219838       1.41358579
C        -0.83719319      -1.87500275      -4.92470130
C         0.20014923      -2.85882109      -5.48349150
C         0.73978195      -2.32397302      -6.82251250
C         2.07714754      -2.96906206      -7.23648359
C         3.21778919      -1.95770551      -7.39877936
C         3.17004660      -1.11051951      -8.66790173
C         4.21988609       0.00128736      -8.61786059
C         4.13094750       0.89905515      -9.84573962
H        -5.60156880      -7.75370061      -9.64618363
H        -6.69399982      -7.81405620      -8.26855810
H        -5.15802003      -8.67840660      -8.21863246
H        -5.48138780      -5.65230640      -8.39715785
H        -3.93792597      -6.49836276      -8.31425160
H        -6.07724666      -6.54848522      -6.15037433
H        -4.69882679      -5.44966957      -6.16838455
H        -3.18082256      -7.50512199      -6.15293262
H        -4.61935070      -8.47721160      -5.85419723
H        -5.14412906      -6.94748523      -3.89966559
H        -3.57195480      -6.19675401      -4.13622505
H        -4.11135110      -9.11083086      -3.42486342
H        -3.67563378      -7.85008676      -2.28591710
H        -1.94282371      -9.12722759      -4.42598493
H        -1.78725425      -9.23926386      -2.68178827
H        -1.17634379      -6.90296646      -4.51434166
H        -0.04625530      -7.84035490      -3.55310839
H        -2.14737520      -6.00899667      -2.33197008
H        -0.53935492      -5.47160683      -2.83241407
H         0.31136879      -7.40624762      -1.26401454
H        -1.25969712      -7.26737078      -0.51303321
H        -0.12600391      -4.57850896      -0.91678007
H         1.07372807      -5.60859446      -0.18852435
H         0.17019711      -4.84730982       1.73789719
H        -0.95389461      -6.17645500       1.50552039
H        -3.71006277      -4.08962295       1.79521693
H        -2.98589099      -5.66942288       2.01641965
H        -3.11352288      -6.10362916      -0.41835267
H        -3.74188546      -4.49255400      -0.70294231
H        -5.49892953      -6.13369928      -0.83332027
H        -5.81246236      -5.00542715       0.47584048
H        -6.39318272      -7.29207280       1.08648271
H        -5.14946841      -6.65232478       2.14636406
H        -3.43470550      -7.89018561       0.69622688
H        -4.78275178      -8.71486787      -0.06945614
H        -5.46913360      -9.68115079       2.06569901
H        -4.37316713      -8.62741074       2.94467598
H        -2.48842875      -9.78844085       1.49544327
H        -3.70372662     -11.02501977       1.23087442
H        -2.81322817     -11.92388751       3.15178438
H        -3.88052141     -10.79461271       3.95587808
H        -0.93575671     -10.39027145       3.26876544
H        -1.58177108     -10.75583837       4.86602702
H        -2.24159156      -8.20200272       3.33765807
H        -0.88632853      -8.35296535       4.45370987
H        -2.39578002      -8.84437175       6.31543451
H        -3.79395120      -8.82215388       5.24668473
H        -1.95240826      -6.43437698       5.75522108
H        -3.54089143      -6.67333604       6.48184113
H        -3.40049131      -6.41460989       4.74477489
H        -2.57265431      -1.25259668       1.59596623
H        -3.65408333      -2.38845525       0.74669282
H        -3.52207674      -1.86978564      -1.98078154
H        -2.50905327      -3.15923435      -1.29255579
H        -2.29436743      -4.31929022      -3.81950007
H        -2.62841843      -3.41548709      -5.28781339
H        -4.66115062      -4.02384760      -4.37212178
H        -4.27947771      -3.53905877      -2.76214809
H        -5.44060621      -2.01468657      -4.98141078
H        -4.02886882      -1.17804268      -4.36673808
H        -6.47776711      -0.70045227      -3.49486673
H        -5.08835349      -0.47411188      -2.46504624
H        -5.55366407      -2.77461657      -1.45668688
H        -7.02986552      -2.81942094      -2.40414975
H        -7.82542328      -0.77236848      -1.25021764
H        -6.27451845      -0.61247055      -0.43636970
H        -6.62594045      -2.78553603       0.70071511
H        -8.16644946      -2.97164237      -0.12899659
H        -7.50268214      -0.75673039       1.87235017
H        -8.49770515      -2.18065870       2.18143613
H        -9.04534949      -0.95582962       1.03673587
H        -0.31263545      -0.99104028      -4.55417820
H        -1.50746268      -1.59097338      -5.73762901
H        -0.24400324      -3.84234263      -5.65077978
H         1.01042826      -2.98532433      -4.76043910
H         0.85858067      -1.24016620      -6.75114884
H        -0.01506069      -2.50555770      -7.58668727
H         1.96269148      -3.51910453      -8.17148141
H         2.36355597      -3.69776805      -6.47130943
H         4.16949162      -2.48813968      -7.37542412
H         3.20862635      -1.27802288      -6.54560612
H         2.17834831      -0.66913985      -8.78463000
H         3.34829798      -1.72881072      -9.54607905
H         5.21619092      -0.44297045      -8.54948493
H         4.06682843       0.60150746      -7.71461841
H         4.47887070       0.37183815     -10.72755730
H         4.73954578       1.79074709      -9.72146131
H         3.09880057       1.19788823     -10.01932624
