50
strain_lig_166 ligand at complex geometry  charge=0 uhf=0  from=66|O=C(c1cc(Cl)c2ccc3c(Cl)cc(C(=O)N4CCCC4)nc3c2n1)N1CCCC1|nitrate
O         0.76565376       1.37560461       1.63062024
C        -0.00757582       2.25715192       2.09272597
C        -1.41326452       2.27126393       1.53490316
C        -2.40269005       3.24522677       1.69366394
C        -3.55282960       3.18533625       0.90838621
Cl       -4.71448919       4.41922787       1.05606216
C        -3.70518418       2.15137836      -0.05425158
C        -4.79662353       2.02063625      -0.96218795
C        -4.79330583       1.07928522      -1.94552492
C        -3.69944541       0.18319480      -2.11394324
C        -3.55035427      -0.72898284      -3.19053140
Cl       -4.71453767      -0.80502007      -4.43373916
C        -2.41149154      -1.52835692      -3.27668944
C        -1.42528646      -1.41740798      -2.28956776
C        -0.02665872      -1.98198508      -2.29704422
O         0.74855372      -1.55178471      -1.40373517
N         0.50525517      -2.78150381      -3.20048826
C        -0.07535709      -3.59851648      -4.24523863
C         1.02345125      -4.62568475      -4.54412811
C         2.31697261      -3.85604723      -4.28145530
C         1.95272789      -2.98330715      -3.08941375
N        -1.58330189      -0.60067000      -1.24606063
C        -2.65588940       0.19647704      -1.16079560
C        -2.65927492       1.20307670      -0.11233277
N        -1.58219080       1.25953281       0.68056040
N         0.52210798       3.12765312       2.93075024
C         1.96360988       2.99592798       3.13867622
C         2.34318200       4.20293133       3.98062737
C         1.05480218       4.49104432       4.75489122
C        -0.04951151       4.18244506       3.74257516
H        -2.29154736       4.06989136       2.37943924
H        -5.63930773       2.68654406      -0.86000752
H        -5.63185039       0.99988217      -2.62189877
H        -2.32036380      -2.19647560      -4.11674738
H        -0.27645361      -2.98708698      -5.13089204
H        -0.99757050      -4.06979599      -3.90350730
H         0.96604105      -4.99113135      -5.56624751
H         0.93943675      -5.46831716      -3.86002718
H         2.58832915      -3.23402450      -5.13182867
H         3.15136246      -4.51130846      -4.04491102
H         2.44792770      -2.00576033      -3.07641110
H         2.17571386      -3.47017214      -2.13234666
H         2.45768123       2.95351555       2.16346501
H         2.16823557       2.04950946       3.64965965
H         2.61466485       5.04219711       3.34066043
H         3.17993744       3.97675214       4.63719907
H         1.00721732       5.51903585       5.10309763
H         0.97461746       3.82480175       5.61192526
H        -0.25874773       5.05962187       3.12377716
H        -0.96801201       3.84630305       4.22394064
