143
strain_lig_084 ligand at complex geometry  charge=0 uhf=0  from=63|CCCCCCCCN(CCCCCCCC)C(=O)COCC(=O)NCCCCCNC(=O)COCC(=O)N(CCCCCCCC)CCCCCCCC|nitrate
C        -1.60288510      -4.01378028       2.42422142
C        -1.60908862      -5.02994133       3.56551356
C        -0.28728783      -5.78466923       3.74313053
C         0.88408582      -4.87955753       4.15993861
C         1.76677531      -4.48455543       2.97078330
C         2.75526140      -3.36310974       3.30672379
C         2.04185390      -2.03524731       3.58923355
C         3.00752952      -0.85623533       3.43745682
N         2.32399504       0.42814401       3.62997605
C         2.53579798       1.14318238       4.88497076
C         1.61198569       0.62561509       5.99321341
C         1.81945226       1.43168190       7.27986742
C         1.00384998       0.88262821       8.45569670
C        -0.50331655       1.09855534       8.28515624
C        -1.26402574       0.64437627       9.53605352
C        -2.78443376       0.76189639       9.37937876
C        -3.26812601       2.21042417       9.32085962
C         1.45176942       0.79471510       2.67537595
O         1.28126331       0.11261663       1.64824503
C         0.68391434       2.10401266       2.84916084
O        -0.15203616       2.25098807       1.70320815
C        -0.87576700       3.48368643       1.66149726
C        -1.36218366       3.63280687       0.21966125
O        -0.73128167       3.08445528      -0.69272806
N        -2.46826713       4.36867239       0.03510052
C        -3.06079774       4.52207438      -1.29070401
C        -3.05151864       5.98645026      -1.73492292
C        -4.02403842       6.83724079      -0.91038443
C        -3.99054721       8.32393709      -1.27675809
C        -4.35815416       8.61869705      -2.73057857
N        -5.57108293       7.93620524      -3.16834675
C        -6.73717558       8.06501419      -2.52292656
O        -6.88337199       8.44861293      -1.37916572
C        -7.96163926       7.58287663      -3.32692078
O        -7.75526765       7.55856574      -4.71196248
C        -8.00783084       8.73956267      -5.44144654
C        -6.71405666       9.27623731      -6.06625466
O        -5.64009257       8.74481305      -5.84463128
N        -6.81542118      10.37833237      -6.85881280
C        -5.57006986      10.79297945      -7.53007335
C        -4.44504126      11.25305271      -6.59552046
C        -4.85178001      12.39878427      -5.66955069
C        -3.64280945      12.90496582      -4.87683560
C        -3.96958029      14.13201224      -4.01546141
C        -5.05804833      13.91659161      -2.95738279
C        -4.79702621      12.76727950      -1.97801691
C        -3.51182240      12.93465400      -1.16932670
C        -8.07337318      10.85078888      -7.45416281
C        -9.06786802      11.52518546      -6.49794652
C        -8.40803043      12.51965875      -5.54130784
C        -9.40914021      13.10489290      -4.53808217
C        -9.75087669      12.14691717      -3.38948339
C        -8.61056146      12.02242934      -2.37248717
C        -8.98740962      11.09335583      -1.21491792
C        -7.91673895      11.09160204      -0.12746073
H        -1.30050881      -4.47974523       1.48431714
H        -2.60847799      -3.61065374       2.29621511
H        -0.93159889      -3.17907504       2.62980966
H        -1.86427262      -4.51940683       4.49992443
H        -2.39633498      -5.76724280       3.37120307
H        -0.44027580      -6.54763733       4.51291647
H        -0.04240077      -6.30912903       2.81335558
H         0.49014987      -3.98375900       4.64990953
H         1.50362707      -5.40216531       4.89502518
H         2.32973033      -5.36211447       2.63709978
H         1.14259087      -4.16324033       2.13045638
H         3.42768284      -3.23289006       2.45133036
H         3.36669366      -3.64786640       4.16825001
H         1.62128662      -2.03409288       4.59792852
H         1.21618991      -1.90724278       2.88346108
H         3.43388173      -0.85786233       2.42752995
H         3.82252779      -0.92606043       4.16165957
H         3.58231078       1.00837775       5.17531405
H         2.37133518       2.21187411       4.71992233
H         0.57344399       0.69686862       5.65665969
H         1.83072762      -0.42962468       6.17980847
H         1.55053885       2.47823721       7.10056821
H         2.88152997       1.40328088       7.54451621
H         1.33583968       1.38966772       9.36689269
H         1.21304584      -0.18526837       8.57723888
H        -0.69401113       2.16015620       8.09626849
H        -0.86532952       0.53618253       7.41679581
H        -0.93729003       1.23876087      10.39543531
H        -1.01223616      -0.40121985       9.74269904
H        -3.25674457       0.26572340      10.23302497
H        -3.10017791       0.23227876       8.47339276
H        -4.35723329       2.23539283       9.27759665
H        -2.94479427       2.75693160      10.20753457
H        -2.87916712       2.72030496       8.43831508
H         1.38328879       2.95203607       2.91126321
H         0.07474952       2.07888986       3.76509368
H        -0.20560459       4.32080880       1.90862403
H        -1.70970833       3.46828660       2.37810776
H        -2.97083945       4.75126514       0.82016018
H        -2.47044056       3.91137186      -1.97968961
H        -4.08532183       4.13454756      -1.26157862
H        -3.33694077       6.01570780      -2.79035218
H        -2.03525994       6.38223240      -1.64718144
H        -3.77252586       6.74654979       0.15187090
H        -5.04029602       6.45384943      -1.04142929
H        -4.68513964       8.85060846      -0.61717173
H        -2.98938139       8.72927813      -1.09919246
H        -4.49101595       9.70158467      -2.85493294
H        -3.56113834       8.29926734      -3.40851303
H        -5.62439329       7.76020191      -4.16999224
H        -8.81691565       8.21060179      -3.04417297
H        -8.16009212       6.55142659      -3.01254079
H        -8.44862927       9.50675179      -4.79494462
H        -8.71923118       8.49841194      -6.24263709
H        -5.81661166      11.60178489      -8.22111354
H        -5.20330361       9.93558080      -8.10714918
H        -3.62478650      11.57733671      -7.24397444
H        -4.08081996      10.41318957      -6.00076509
H        -5.61579570      12.03627187      -4.97735451
H        -5.28258006      13.21800866      -6.25453447
H        -3.25537470      12.09429078      -4.25129737
H        -2.84775295      13.18492812      -5.57581116
H        -4.29109700      14.94770024      -4.67116167
H        -3.04515901      14.45443712      -3.52622720
H        -6.01946040      13.73932044      -3.45089792
H        -5.15803525      14.84730390      -2.38871996
H        -4.76646790      11.81420433      -2.51915389
H        -5.64425936      12.71668902      -1.28663491
H        -2.63278501      12.88761944      -1.81277223
H        -3.51045525      13.89299236      -0.64894281
H        -3.43544251      12.13816260      -0.42793141
H        -8.56811716      10.00324694      -7.94380801
H        -7.80111014      11.56994789      -8.23014156
H        -9.62310005      10.77282837      -5.93386524
H        -9.79574690      12.04902129      -7.12526053
H        -7.60374018      12.01246206      -5.00211976
H        -7.95805941      13.33063242      -6.12175557
H       -10.32930516      13.37770553      -5.06429206
H        -8.98738337      14.02464460      -4.12080330
H       -10.64101424      12.52512232      -2.87732996
H       -10.00034006      11.15552334      -3.78466852
H        -8.37222711      13.01632160      -1.97875402
H        -7.70933282      11.63683662      -2.86257940
H        -9.12129278      10.07368471      -1.59523081
H        -9.94256631      11.41321774      -0.78524958
H        -8.19911902      10.40845457       0.67346487
H        -6.96008509      10.76452965      -0.53639082
H        -7.79317061      12.09099865       0.29191703
