119
strain_lig_065 ligand at complex geometry  charge=0 uhf=0  from=66|CCCCCCCCN(CCCCCCCC)C(=O)C(C)OC(C)C(=O)N(CCCCCCCC)CCCCCCCC|nitrate
C        -5.42417098       4.54814174      -5.98081198
C        -5.17191921       3.36612142      -5.05244785
C        -6.06222419       3.37773394      -3.80784032
C        -5.81420055       4.54226507      -2.84525825
C        -4.42170150       4.50978883      -2.19404856
C        -3.46142371       5.54363470      -2.78321454
C        -2.04053355       5.49477931      -2.20277625
C        -1.19689589       4.44822385      -2.95137862
N        -0.13675881       3.76830891      -2.21745554
C         1.22095809       4.31227806      -2.32789011
C         1.83011757       4.43391925      -3.73419614
C         2.77209192       3.29691141      -4.12025329
C         2.06534764       1.97644333      -4.42195313
C         2.95683002       1.03176557      -5.23497903
C         4.26707241       0.68105308      -4.52718031
C         5.00640679      -0.50180783      -5.15806927
C         5.57494231      -0.19706808      -6.53751376
C        -0.38132337       2.70691629      -1.46403796
O         0.49313542       1.90511297      -1.07112876
C        -1.81895560       2.37503490      -1.01227429
C        -2.39553327       1.33581173      -1.97815205
O        -1.66575632       1.70198818       0.24122488
C        -2.06777604       2.29237920       1.48796228
C        -3.55422081       1.99620554       1.68107240
C        -1.01085003       1.70518237       2.47908844
O        -0.00159834       1.21656416       1.90993069
N        -1.05232630       1.81136501       3.79698831
C        -2.20743922       2.23213975       4.57218580
C        -2.49136602       1.35536366       5.79752059
C        -2.70495294      -0.12889792       5.49067606
C        -4.08113867      -0.46765236       4.90570143
C        -4.59948223      -1.84651306       5.33965159
C        -4.11523765      -3.01172903       4.47533558
C        -2.59766634      -3.15067987       4.44077381
C        -2.14588812      -4.49188592       3.87575561
C         0.15696937       1.45769029       4.55103988
C         0.72955448       2.62830439       5.35688470
C         1.95245305       2.23084684       6.19215060
C         3.24001935       2.09022134       5.38388149
C         4.48925413       2.10645401       6.26971376
C         4.69888265       0.87186864       7.14945775
C         5.08610815      -0.37115210       6.35187412
C         5.54119409      -1.51818600       7.24886459
H        -4.79810764       4.47675020      -6.86743029
H        -5.20539709       5.49353418      -5.49135118
H        -6.46380826       4.56629043      -6.29595263
H        -4.11670107       3.34986745      -4.76305473
H        -5.37245318       2.44289062      -5.60029312
H        -5.91996261       2.43724758      -3.26581252
H        -7.10580364       3.41603036      -4.12756842
H        -6.57413674       4.48990586      -2.06463396
H        -5.96137215       5.48536829      -3.36870438
H        -4.02866233       3.50014354      -2.31167496
H        -4.52164047       4.70775079      -1.12455240
H        -3.88144731       6.53180203      -2.60135642
H        -3.40061215       5.41347803      -3.86286087
H        -2.07136948       5.28915249      -1.13285901
H        -1.59247328       6.48104935      -2.31054547
H        -0.71544717       4.94117938      -3.79488631
H        -1.85835557       3.68266656      -3.35750680
H         1.85876911       3.68721574      -1.70143639
H         1.18207013       5.30890445      -1.87655031
H         2.40492349       5.36009626      -3.75261510
H         1.06098074       4.52605493      -4.50110040
H         3.50738820       3.15907896      -3.32692194
H         3.31371519       3.60514978      -5.01497751
H         1.16577596       2.17881229      -5.00864696
H         1.74835324       1.49081274      -3.49301570
H         3.18191924       1.50169510      -6.19304175
H         2.39805339       0.11482801      -5.44841426
H         4.05142955       0.44690216      -3.48121033
H         4.93158841       1.54562019      -4.53783689
H         4.33918388      -1.36127837      -5.24953991
H         5.82552502      -0.78829336      -4.49374143
H         4.77990060      -0.01058292      -7.25465333
H         6.15426961      -1.04625581      -6.89149225
H         6.22631918       0.67219324      -6.50428451
H        -2.45391279       3.25408400      -0.91333657
H        -1.67941115       0.50598358      -2.05849202
H        -2.56219793       1.73869638      -2.97183754
H        -3.33106598       0.93851347      -1.58952477
H        -1.89483524       3.37752358       1.47916169
H        -3.70589035       0.97107398       2.01001022
H        -4.05558535       2.11442900       0.72159973
H        -4.03138341       2.68258488       2.37243090
H        -3.07732921       2.19412099       3.93187445
H        -2.06155179       3.26508348       4.90436769
H        -3.39574742       1.76146707       6.25442675
H        -1.69011762       1.45626890       6.52842165
H        -2.59743692      -0.66961928       6.43200597
H        -1.92310349      -0.48339479       4.81995992
H        -4.05151959      -0.44694970       3.81879355
H        -4.80246819       0.28001852       5.23932538
H        -5.69168768      -1.83242120       5.30222721
H        -4.31174980      -2.03344749       6.37755762
H        -4.48738408      -2.88809845       3.45937497
H        -4.54445946      -3.93195748       4.87604810
H        -2.22372523      -3.04119878       5.45506418
H        -2.17251353      -2.35498954       3.83064815
H        -2.44241658      -5.30454664       4.53599029
H        -1.06238250      -4.51212775       3.75617817
H        -2.59600000      -4.65882977       2.89956889
H         0.89064203       1.10535442       3.82694415
H        -0.08577309       0.63414159       5.22091787
H        -0.02839671       3.00586978       6.04183965
H         1.00802577       3.44022298       4.68202834
H         1.75061500       1.30574509       6.73041577
H         2.11215248       3.01016294       6.93836438
H         3.31051753       2.93233818       4.69159275
H         3.21875287       1.17888004       4.78619795
H         4.43056609       2.98171987       6.91926482
H         5.36805212       2.22859314       5.63106100
H         3.80248907       0.66671631       7.73655088
H         5.50270320       1.09587806       7.85246758
H         5.89672745      -0.11260371       5.66656054
H         4.23473263      -0.69577479       5.75601095
H         6.44870633      -1.24796270       7.78307635
H         5.74808723      -2.41328669       6.66268630
H         4.78070692      -1.76188218       7.98841119
