74
strain_lig_017 ligand at complex geometry  charge=0 uhf=0  from=63|CC12CCC(c3nnc(-c4cccc(-c5cccc(-c6nnc7c(n6)C6(C)CCC7C6(C)C)n5)n4)nc31)C2(C)C|nitrate
C         1.64732427       6.11809968       3.87832698
C         1.42643719       5.78446918       2.42096807
C         2.60676753       6.17747839       1.48336987
C         2.00254119       6.13416060       0.07024262
C         0.53349971       5.71271890       0.31763708
C         0.65619782       4.30451088       0.76830992
N         0.36474145       3.17446527       0.18528782
N         0.64709568       2.06654612       0.86838022
C         1.23690018       2.13748232       2.06151739
C         1.58246896       0.83490803       2.65196972
C         1.99650186       0.66172163       3.96958128
C         2.31654195      -0.62262489       4.37886099
C         2.25675613      -1.67434096       3.47655195
C         1.86218135      -1.40568219       2.16739953
C         1.90146831      -2.35617844       1.03353921
C         2.41126999      -3.65577937       1.06458061
C         2.57504545      -4.32746778      -0.13694781
C         2.26149192      -3.70109870      -1.33373928
C         1.70670431      -2.42760089      -1.27318840
C         1.41102147      -1.59251036      -2.45248473
N         0.80329093      -0.44157413      -2.16994930
N         0.63857378       0.48920116      -3.10197749
C         1.12988380       0.21833479      -4.27972612
C         1.76005189      -1.03008629      -4.56641546
N         1.88746973      -1.95853136      -3.65242992
C         2.26790520      -0.95234868      -5.96438030
C         3.29897948      -1.98182586      -6.36531656
C         0.97449712      -0.96247621      -6.82632251
C         0.29339976       0.37967121      -6.51457556
C         1.25532897       1.04547106      -5.50452000
C         2.65698388       0.56989156      -5.98458005
C         3.05257494       1.10891814      -7.35099528
C         3.76691552       0.91251987      -4.98418914
N         1.51508849      -1.79680229      -0.11481114
N         1.51493007      -0.17312369       1.78817954
N         1.55652886       3.25922113       2.71975038
C         1.23507643       4.35237174       2.07335321
C         0.19789503       6.40229706       1.66880709
C         0.20652545       7.92214105       1.59538020
C        -1.14627775       5.94023655       2.23662501
H         2.54522029       5.62279032       4.23881386
H         0.80457935       5.78066288       4.47444644
H         1.76616814       7.19132296       4.00656448
H         3.44118752       5.48645893       1.60297100
H         2.96279575       7.17183325       1.74910322
H         2.50925620       5.41746263      -0.57603914
H         2.04410033       7.10536803      -0.41881180
H        -0.13372424       5.89211764      -0.51622453
H         2.06520884       1.50734623       4.63092401
H         2.61970135      -0.80589436       5.39847489
H         2.52027048      -2.67191916       3.78389378
H         2.69086008      -4.12644712       1.99205271
H         2.97065779      -5.33043948      -0.13718079
H         2.44631841      -4.16603706      -2.28560475
H         2.86210028      -2.97611363      -6.32463313
H         4.14490789      -1.94908435      -5.68534317
H         3.64669373      -1.79356875      -7.37770725
H         0.34662792      -1.81647048      -6.57569781
H         1.24226544      -1.05118691      -7.87857013
H        -0.69735891       0.25323379      -6.07958678
H         0.18420491       0.99691703      -7.40423752
H         1.10293928       2.11005659      -5.37289873
H         2.31023935       0.89004897      -8.10972861
H         4.00354645       0.68387911      -7.66200734
H         3.17217805       2.18809731      -7.29065209
H         3.55733370       0.53209227      -3.98437967
H         3.88181798       1.99221055      -4.91446672
H         4.71482970       0.49287785      -5.31510964
H         1.14435004       8.30937325       1.21352140
H         0.03441752       8.34639195       2.58101484
H        -0.59497256       8.25728354       0.94200858
H        -1.20732103       4.85546583       2.32177833
H        -1.95371958       6.27278646       1.58767821
H        -1.31051117       6.36979098       3.22278112
