55
strain_lig_002 ligand at complex geometry  charge=0 uhf=0  from=63|CC(C)(C)Cc1cc(-c2cccc(-c3cc(CC(C)(C)C)[nH]n3)n2)n[nH]1|nitrate
C         1.81506223       1.66596445       5.41159634
C         2.17503024       3.08928863       5.87044406
C         1.28432062       3.43354330       7.06586086
C         3.65128473       3.16264040       6.29555201
C         1.90616745       4.14231063       4.75776437
C         2.46178338       3.71173259       3.44957012
C         3.55773649       2.91433763       3.16353767
C         3.34792958       2.41271448       1.87245935
C         3.71256035       1.02454165       1.52245513
C         4.86990638       0.27982658       1.71323813
C         4.74436434      -1.10560192       1.69517952
C         3.49518379      -1.71977089       1.69235980
C         2.37095479      -0.90302979       1.59787716
C         0.97228106      -1.11270665       2.01155896
C         0.20343255      -2.16268651       2.52870221
C        -0.99380017      -1.57653523       2.94284124
C        -2.21860992      -2.13697129       3.56056718
C        -3.40630545      -1.16688035       3.77099360
C        -3.88369117      -0.52965510       2.46020317
C        -3.08693749      -0.08352579       4.81159073
C        -4.53989139      -2.04188926       4.31768700
N        -0.87429407      -0.27021178       2.69485224
N         0.28642290       0.05331626       2.14368177
N         2.54173216       0.40326764       1.36691448
N         2.20980574       2.93301033       1.35703712
N         1.70450592       3.72105434       2.33335098
H         2.30076213       0.94911278       6.06806809
H         2.12762299       1.45100655       4.39177124
H         0.74304006       1.49741506       5.46385309
H         1.41389351       2.67772201       7.83529899
H         0.23260902       3.45138707       6.78657289
H         1.54982990       4.40072189       7.48360801
H         3.75027869       3.17571004       7.37840260
H         4.11483305       4.06824507       5.91501622
H         4.20992714       2.30793675       5.92696212
H         2.29117061       5.11708614       5.07443394
H         0.82544431       4.24569282       4.62619073
H         4.38033043       2.68619070       3.80302975
H         5.82178997       0.75495835       1.87866438
H         5.62859032      -1.71871509       1.76862610
H         3.40187262      -2.78799543       1.79108722
H         0.48937869      -3.19346054       2.60336610
H        -1.94212651      -2.56641522       4.52852941
H        -2.55819093      -2.97281637       2.94528426
H        -3.15505896       0.12209288       1.98077516
H        -4.77393864       0.06455017       2.65383335
H        -4.14385517      -1.29934454       1.74039898
H        -4.00959103       0.27030297       5.26324852
H        -2.57915253       0.78414434       4.39344930
H        -2.46941380      -0.48198612       5.61085650
H        -4.78104133      -2.83618923       3.61639985
H        -5.43462727      -1.45015024       4.47450877
H        -4.25778822      -2.48755105       5.26753664
H        -1.57593634       0.44017489       2.87420040
H         0.89713895       4.32028125       2.19229907
