117
strain_lig_028 ligand at complex geometry  charge=0 uhf=0  from=66|CCCCCCCCC(C)(C)SCC1CN(C(=O)COCC(=O)N2CC(C)C(CSC(C)(C)CCCCCCCC)C2)CC1C|water
C        -1.97748637      -4.56020565       2.39837811
C        -3.12857772      -3.65849366       2.86308635
C        -2.63932067      -2.49340543       3.71875516
C        -3.75589864      -1.68251931       4.37764134
C        -4.84046985      -1.08235597       3.48077556
C        -4.34712968       0.05908373       2.59529415
C        -5.43673139       0.65020783       1.69513635
C        -5.79876218      -0.36883886       0.61852161
C        -6.45772164       0.15063093      -0.66068827
C        -7.81066712       0.79915880      -0.42380920
C        -5.53241181       1.06611874      -1.44113941
S        -6.78865187      -1.50069926      -1.51242992
C        -6.38591883      -1.49879299      -3.29849569
C        -5.02465598      -2.05401782      -3.74349995
C        -3.87330179      -1.04512702      -3.65552333
N        -3.21080412      -1.31445092      -2.38325749
C        -2.26970201      -0.56919745      -1.84829643
O        -1.76761240      -0.79695111      -0.71502066
C        -1.79225200       0.62958424      -2.68308384
O        -0.43373954       0.95491330      -2.36616109
C        -0.15920399       2.34805800      -2.46195820
C        -0.54209771       2.97588569      -1.11898941
O        -0.84622719       2.19129148      -0.18345888
N        -0.60334167       4.28309981      -1.01223446
C        -1.10480552       4.91168111       0.20957476
C        -0.45739617       6.30400637       0.22003887
C        -0.26025171       6.90204951       1.60396900
C         0.81782743       6.03776222      -0.60120500
C         1.83456227       5.17223195       0.15821802
S         3.45804348       6.01674450       0.31638361
C         4.10323261       5.40917931       1.96132461
C         5.52535152       5.94662163       2.04909363
C         3.27742358       6.00038099       3.09946090
C         4.05920376       3.88063149       2.00163044
C         4.97204812       3.17412610       1.00375706
C         4.54789009       1.72187897       0.78791282
C         4.71672979       0.80360544       1.99744647
C         6.16785814       0.61720021       2.43968334
C         7.03483368       0.02144159       1.33070627
C         8.38471914      -0.48508148       1.83625780
C         9.25179117       0.63303069       2.40360155
C         0.20653223       5.24127174      -1.76046665
C        -3.70969719      -2.54645443      -1.78856991
C        -4.45360059      -3.23755319      -2.93696707
C        -5.46662016      -4.27891209      -2.48623810
H        -2.26103637      -5.60834938       2.44139055
H        -1.11052982      -4.43142195       3.04509525
H        -1.68127936      -4.33276728       1.37151972
H        -3.83176385      -4.25038818       3.44880285
H        -3.65701346      -3.26911415       1.99297322
H        -1.97597902      -1.85560844       3.12132767
H        -2.03581472      -2.89246399       4.53487686
H        -3.28855006      -0.88739490       4.95849418
H        -4.25300909      -2.33929582       5.08919779
H        -5.62507200      -0.69538209       4.13342348
H        -5.28256951      -1.86526631       2.86762860
H        -3.57548629      -0.33370826       1.92579699
H        -3.92016275       0.84931402       3.22129105
H        -5.05428290       1.56215714       1.23059253
H        -6.31330212       0.91206646       2.28509258
H        -6.45882555      -1.12775393       1.04033812
H        -4.87224425      -0.86769003       0.31810361
H        -7.70724157       1.72734790       0.13415593
H        -8.45224308       0.12613892       0.13830835
H        -8.29555356       1.01847150      -1.37252991
H        -5.49374215       2.03514663      -0.94717357
H        -5.90030559       1.23292732      -2.45093198
H        -4.52397498       0.65737973      -1.47595341
H        -6.53556376      -0.49809878      -3.70166785
H        -7.16054247      -2.14657461      -3.70761777
H        -5.16019592      -2.34616365      -4.78964192
H        -4.21638253      -0.01232953      -3.70540933
H        -3.16648958      -1.22501499      -4.47082450
H        -2.45175583       1.47496622      -2.45159037
H        -1.85698598       0.40247790      -3.75409213
H        -0.72398060       2.79309099      -3.28754417
H         0.91407694       2.45742458      -2.66429203
H        -0.80447790       4.30907161       1.07050846
H        -2.19470236       4.94089053       0.17342183
H        -1.08889971       6.99014024      -0.34946108
H         0.34053261       6.26262496       2.24556120
H        -1.22011009       7.06135101       2.09242137
H         0.24379001       7.86165817       1.51187753
H         1.28914047       6.95462579      -0.95015500
H         1.99082758       4.21818141      -0.35604914
H         1.48900329       4.95451575       1.16440725
H         5.51030588       7.02971546       2.13796341
H         6.10595947       5.68481603       1.16941372
H         6.01213976       5.53605877       2.92992372
H         3.27207912       7.08484842       3.03486184
H         3.72209836       5.72006219       4.05267929
H         2.24764046       5.64679590       3.09128257
H         3.03895680       3.54865505       1.78583677
H         4.31213213       3.57476689       3.01953730
H         6.00554169       3.21245246       1.34464459
H         4.91287624       3.69793205       0.04610428
H         5.13916847       1.30519354      -0.02283451
H         3.49138089       1.69889776       0.47526632
H         4.32226141      -0.17722848       1.70696497
H         4.11954480       1.17367183       2.83579648
H         6.18462190      -0.05630558       3.30057251
H         6.58041413       1.57094961       2.76513752
H         7.21488039       0.77153914       0.55910902
H         6.49259164      -0.81014979       0.86976130
H         8.90764677      -0.95312559       1.00024413
H         8.22777187      -1.25104707       2.59896017
H         9.34263544       1.44478311       1.68370432
H        10.24884180       0.26187713       2.62445182
H         8.82891093       1.02834218       3.32471303
H         0.95053796       4.75002403      -2.38145521
H        -0.43472259       5.87051649      -2.38477942
H        -4.40337654      -2.32160993      -0.97523877
H        -2.87833886      -3.13055599      -1.39130412
H        -3.71061186      -3.72597078      -3.57536059
H        -6.20652686      -3.84902211      -1.81729983
H        -4.96209149      -5.09076059      -1.96711949
H        -5.98068237      -4.69250172      -3.35063081
