96
strain_lig_132 ligand at complex geometry  charge=0 uhf=0  from=63|CCCCN(CCCC)C(=O)COCC(=O)NCc1cccc(CNC(=O)COCC(=O)N(CCCC)CCCC)c1|nitrate
C         0.07495452      -3.28167964      -5.93857836
C        -0.87481142      -2.11578966      -6.18977721
C        -1.23043327      -1.36603126      -4.90308034
C        -1.92316706      -2.28952591      -3.89412291
N        -2.87311509      -1.60189205      -3.02314806
C        -4.26552310      -1.55545610      -3.45859349
C        -4.87438210      -0.17466122      -3.73010683
C        -4.16504905       0.63943983      -4.81313295
C        -4.96237267       1.88879780      -5.17817686
C        -2.42880109      -1.20806456      -1.83775632
O        -1.22816011      -1.30870413      -1.51152189
C        -3.42009469      -0.64478614      -0.82956121
O        -2.76185653      -0.49881713       0.42308246
C        -3.53921938       0.27696387       1.34685145
C        -2.88342113       1.64705135       1.48864925
O        -1.64313199       1.64735031       1.44599749
N        -3.67237076       2.69298928       1.65762810
C        -3.22040069       4.02714375       2.03714067
C        -3.36977569       5.13881594       1.02598373
C        -4.61720649       5.53440767       0.56483969
C        -4.71862879       6.59544547      -0.31793335
C        -3.58929895       7.28703005      -0.72041038
C        -2.33824513       6.94242140      -0.22571718
C        -1.11492582       7.74592935      -0.60816906
N        -0.00214340       6.89544286      -0.99661243
C        -0.10334119       6.05311974      -2.03293541
O        -1.12560825       5.87030662      -2.66274134
C         1.17982645       5.30390006      -2.37869757
O         2.07625560       5.26408281      -1.28769453
C         3.33559872       4.75545913      -1.69365635
C         4.22467223       4.37479519      -0.50380496
O         4.28812184       3.18807856      -0.19831684
N         4.93456959       5.33299864       0.09780566
C         4.68905091       6.75416739      -0.08831184
C         4.55323179       7.50159140       1.24974548
C         3.25061277       8.29104194       1.36297911
C         3.20020085       9.00839408       2.70840114
C         6.05310717       4.92954178       0.94139766
C         7.42742311       5.26646113       0.35458530
C         7.83852585       4.40807109      -0.84722653
C         7.32485152       4.93187883      -2.18547489
C        -2.24052236       5.85956343       0.64442658
H         0.34162878      -3.75903871      -6.87791088
H        -0.38941219      -4.03107330      -5.30099522
H         0.98700019      -2.93184350      -5.45724137
H        -1.78943528      -2.49124343      -6.65649288
H        -0.41447614      -1.41505895      -6.88937677
H        -1.90129998      -0.54819844      -5.15960825
H        -0.32919955      -0.93710474      -4.45808786
H        -1.18953853      -2.77110619      -3.24305709
H        -2.47506137      -3.05993411      -4.43351700
H        -4.88771607      -2.07460252      -2.72328446
H        -4.31630322      -2.12405024      -4.38746892
H        -4.93101468       0.42229484      -2.82017655
H        -5.90021548      -0.35990527      -4.05582087
H        -4.03330482       0.02600894      -5.70869834
H        -3.18246081       0.95523848      -4.45412029
H        -5.94300459       1.61435245      -5.56047207
H        -4.43981697       2.45782874      -5.94390804
H        -5.09020920       2.53300339      -4.30985258
H        -4.28205053      -1.32027795      -0.72020580
H        -3.78534354       0.32739329      -1.18367102
H        -3.47887228      -0.21732230       2.32242786
H        -4.58553517       0.32233321       1.05129371
H        -4.68962027       2.54714374       1.71101853
H        -2.16945998       3.95462356       2.32433894
H        -3.83651147       4.30146172       2.89736483
H        -5.50438938       5.03348021       0.91784799
H        -5.68534166       6.90575210      -0.67880888
H        -3.68343978       8.11589979      -1.40504109
H        -0.78624522       8.37133086       0.22646649
H        -1.38010606       8.39814328      -1.44584549
H         0.88555541       6.98845650      -0.52806408
H         1.63475280       5.81806707      -3.24061570
H         0.91256257       4.28552099      -2.70335987
H         3.84234618       5.48489689      -2.34205479
H         3.18892215       3.82225149      -2.25849282
H         3.75641558       6.86747024      -0.64031270
H         5.49740733       7.18388149      -0.68619523
H         5.39597746       8.17753984       1.38941501
H         4.57080036       6.78868290       2.07613189
H         2.40811854       7.59409146       1.28199818
H         3.17209704       9.02450957       0.55657081
H         3.99219579       9.75185847       2.76635243
H         2.24488673       9.50509756       2.86073602
H         3.35009930       8.30000679       3.52228150
H         5.97067448       3.85027386       1.07700459
H         5.97146917       5.40600134       1.91852040
H         8.14875179       5.10716156       1.15709606
H         7.47742264       6.32197198       0.08399339
H         7.50031264       3.37946353      -0.69362129
H         8.92859934       4.38380988      -0.90856890
H         6.24412452       5.05272886      -2.18233213
H         7.58853717       4.23494968      -2.97881336
H         7.78082343       5.89390200      -2.41274588
H        -1.28245291       5.61128443       1.09020942
