43
strain_lig_152 ligand at complex geometry  charge=0 uhf=0  from=63|CCOP(=S)(COCP(=S)(OCC)OCC)OCC|water
C        -2.11402523       4.24467799      -1.18460997
C        -1.33381957       3.11948466      -1.83155231
O        -0.54791590       2.34741454      -0.84243221
P         1.00724829       2.87433734      -0.53241915
S         1.08754411       2.20129887       1.54733625
C        -0.57676110       2.69915244       2.15494007
O        -1.54564368       1.80058633       1.64940115
C        -2.23005198       0.95552149       2.54572540
P        -2.70892631      -1.41572946       0.53232410
S        -1.60828797      -0.77727049       2.31406345
O        -2.52229383       0.01338247      -0.34020671
C        -3.46732537       0.10674620      -1.48986459
C        -4.52681389       1.16821217      -1.29630010
O        -1.34802847      -2.11745906      -0.09683172
C        -1.61227116      -2.92212196      -1.31740769
C        -0.83928101      -4.21854029      -1.31352497
O         1.69189170       1.44901298      -1.05971645
C         1.88442338       1.47140324      -2.52840498
C         3.15598766       0.77306704      -2.94223167
H        -2.72598144       4.72819468      -1.94731168
H        -1.43964123       4.99012245      -0.75884365
H        -2.77260971       3.86535026      -0.40272457
H        -0.65421007       3.50743455      -2.59272537
H        -1.99858726       2.37889969      -2.28198080
H        -0.78648312       3.71203834       1.80148000
H        -0.52454170       2.70832508       3.24608589
H        -3.30531617       0.98967205       2.33575537
H        -2.07600034       1.21537266       3.59683138
H        -3.94365069      -0.86976328      -1.61141979
H        -2.84215116       0.30895818      -2.36553376
H        -5.12559592       0.96193203      -0.41094663
H        -5.18542722       1.15512580      -2.16416789
H        -4.10304029       2.16421455      -1.21239483
H        -1.34748483      -2.29423105      -2.17870595
H        -2.68028518      -3.15414456      -1.35676938
H         0.23842074      -4.07961864      -1.37001885
H        -1.15562663      -4.79327563      -2.18097920
H        -1.07425142      -4.80392129      -0.42992231
H         1.94443301       2.51477370      -2.85156727
H         0.99720665       1.00708810      -2.98290609
H         4.00760798       1.18519524      -2.41037864
H         3.30738558       0.96875710      -4.00001556
H         3.12339453      -0.30440729      -2.79672908
