37
strain_lig_159 ligand at complex geometry  charge=0 uhf=0  from=63|Cc1cc(C)n(-c2cccc(-n3nc(C)cc3C)n2)n1|nitrate
C         3.63886900       1.43432131       1.33869955
C         2.55810916       2.44196776       1.52466996
C         2.40758938       3.49429733       2.44738308
C         1.17557200       4.05929504       2.19160590
C         0.49712539       5.14313831       2.93650683
N         0.63484979       3.36919441       1.14098462
C        -0.58596355       3.45317325       0.47274678
C        -1.53522833       4.46264828       0.63453341
C        -2.66904765       4.41714206      -0.16295161
C        -2.85812182       3.38975797      -1.07814326
C        -1.88658361       2.39607824      -1.13521812
N        -1.95106508       1.25982917      -1.94944236
N        -0.78197130       0.71125636      -2.38745320
C        -1.07918651      -0.49614729      -2.87177377
C        -0.00370364      -1.36724975      -3.43462443
C        -2.45635503      -0.74086393      -2.71387810
C        -2.99073586       0.39397079      -2.14053152
C        -4.39918683       0.69106281      -1.79010781
N        -0.77343094       2.44811910      -0.39581756
N         1.48834544       2.38684918       0.73856852
H         4.25976295       1.37388922       2.22900322
H         4.28613297       1.68735941       0.49227626
H         3.20003280       0.43889568       1.15443139
H         3.10198658       3.79468739       3.20685646
H         0.35370029       6.04284101       2.33611500
H         1.10702366       5.40583273       3.79687851
H        -0.47489940       4.79931269       3.29034638
H        -1.41462305       5.27758206       1.32709302
H        -3.40522224       5.20439661      -0.08103315
H        -3.71030985       3.38478657      -1.73659514
H         0.77228953      -0.75991429      -3.91311033
H        -0.41750902      -2.05841287      -4.16882744
H         0.45662397      -1.95680516      -2.62729232
H        -2.98027378      -1.65050052      -2.93644232
H        -5.00071366      -0.20894588      -1.88914978
H        -4.81195052       1.44631507      -2.45945894
H        -4.49716079       1.05580987      -0.76896751
