63
strain_lig_048 ligand at complex geometry  charge=0 uhf=0  from=66|CCCCCCCCN(C(=O)c1ccc2ccc3cccnc3c2n1)c1ccc(C)cc1|nitrate
C        -1.00085214       7.39538904      -3.66344361
C        -0.25369537       6.74921163      -2.50433827
C         0.29443053       5.35971805      -2.83451822
C         1.35446512       5.34506445      -3.93536662
C         2.01539975       3.97066230      -4.06436282
C         1.02018329       2.88704900      -4.48769416
C         1.62719129       1.49136510      -4.39951928
C         0.71011704       0.39045337      -4.93024341
N        -0.62707570       0.26891588      -4.34055966
C        -0.74124616      -0.02458781      -3.03774578
O         0.19523309       0.21958417      -2.24091881
C        -1.89741902      -0.82211475      -2.48140856
C        -2.99053419      -1.39375468      -3.15758313
C        -3.86628097      -2.17777180      -2.43989706
C        -3.63978565      -2.45399530      -1.08118826
C        -4.49675836      -3.26999479      -0.29089094
C        -4.19401540      -3.52820385       1.00444660
C        -3.00788562      -3.01556782       1.60964279
C        -2.67300428      -3.27566898       2.95046749
C        -1.51857861      -2.74556987       3.47544765
C        -0.67675490      -2.00982283       2.63756731
N        -0.95210230      -1.76405637       1.36610365
C        -2.11883762      -2.22338535       0.85651411
C        -2.47251935      -1.90550415      -0.50557989
N        -1.66458590      -1.09445725      -1.19839901
C        -1.73105686       0.54767371      -5.17701422
C        -1.75106762       0.20927562      -6.52645843
C        -2.81757724       0.58408851      -7.32315553
C        -3.90242002       1.27503316      -6.79658379
C        -5.06597446       1.66224746      -7.64257401
C        -3.87687631       1.60521385      -5.44475023
C        -2.80131600       1.26956271      -4.65095372
H        -1.43906383       8.33309415      -3.33598197
H        -1.79868673       6.74514155      -4.01490150
H        -0.33081132       7.60499067      -4.49039838
H        -0.94331417       6.64661320      -1.66158274
H         0.56661199       7.39710418      -2.18774132
H        -0.54793949       4.72728336      -3.12891321
H         0.74235609       4.92538662      -1.93307205
H         2.11870724       6.09079110      -3.70377694
H         0.89953146       5.61741513      -4.88759789
H         2.46679914       3.69670121      -3.10581610
H         2.82288503       4.03253526      -4.79648971
H         0.69137686       3.08887304      -5.50985816
H         0.14402221       2.92927041      -3.83821459
H         1.90937395       1.27322348      -3.36862521
H         2.52002433       1.44577054      -5.02586479
H         1.21018916      -0.57325881      -4.79516066
H         0.56043598       0.56604296      -5.99332171
H        -3.14756087      -1.22447303      -4.21005010
H        -4.73572332      -2.60994254      -2.90463122
H        -5.38420502      -3.67241782      -0.75662346
H        -4.83603252      -4.14137736       1.61924299
H        -3.33860103      -3.89338488       3.53347710
H        -1.24345915      -2.89659390       4.50698325
H         0.25466711      -1.59685959       3.01609771
H        -0.94824532      -0.35185993      -6.97424611
H        -2.81210763       0.32923760      -8.37066584
H        -4.93202296       1.34923487      -8.67324592
H        -5.20293020       2.74177134      -7.62121745
H        -5.97935142       1.21020135      -7.25895110
H        -4.70609702       2.14558825      -5.01805163
H        -2.76979844       1.57043289      -3.61622545
