118
strain_lig_025 ligand at complex geometry  charge=0 uhf=0  from=63|CCCCCC(C)Oc1cc(CNC(=O)COCC(=O)N(CCCC)CCCC)cc(CNC(=O)COCC(=O)N(CCCC)CCCC)c1|nitrate
C        -8.49566221      -0.53039925      -2.33242812
C        -9.14357149      -0.48336434      -0.95214374
C        -9.69722173      -1.84544438      -0.53398485
C       -10.43761564      -1.81879317       0.80820917
C        -9.58468658      -2.09921665       2.04699592
C        -8.48269087      -1.07802891       2.32357119
C        -8.08185139      -1.00758703       3.79215719
O        -7.34180543      -1.26218839       1.47950631
C        -6.62753573      -2.40297775       1.34972304
C        -5.86980187      -2.39639784       0.17777734
C        -4.96653675      -3.40256307      -0.10183128
C        -4.23950784      -3.39626469      -1.42025647
N        -2.81005316      -3.16314612      -1.33342085
C        -2.25477003      -2.01842962      -0.98275494
O        -1.04601531      -1.79711695      -1.16555640
C        -3.16087940      -0.99964990      -0.30154646
O        -2.39183585       0.14400078       0.01338084
C        -2.99858485       1.01092672       0.97604569
C        -2.12314546       0.92033149       2.24076352
O        -0.89550016       0.92817299       2.04482177
N        -2.67637699       0.80125765       3.44111242
C        -4.09935751       0.98917836       3.67327529
C        -4.49003075       2.46041557       3.50263111
C        -5.97274533       2.70772551       3.78049951
C        -6.34157876       4.17900026       3.60947722
C        -1.81296073       0.56887724       4.59684080
C        -1.45989768      -0.91308544       4.75722460
C        -0.61991812      -1.15798877       6.01388014
C        -0.28201368      -2.63450026       6.20402694
C        -4.81154364      -4.45221756       0.79364984
C        -5.60362734      -4.52053978       1.93157525
C        -5.50614789      -5.74682099       2.81341942
N        -4.21805258      -5.90167898       3.47881268
C        -4.20363497      -5.96457539       4.83161052
O        -5.17908427      -5.75924263       5.52079792
C        -2.85045022      -6.25986113       5.49541338
O        -1.74513636      -6.26323921       4.61023959
C        -0.99984245      -7.45991489       4.52940294
C        -1.19041248      -8.11724462       3.16308758
O        -1.99098967      -7.61807733       2.37617710
N        -0.45549733      -9.19439863       2.86473603
C         0.62576386      -9.71823809       3.68671983
C         0.26075127     -10.32748442       5.04937433
C        -1.00890358     -11.17505114       5.00672589
C        -1.46534170     -11.59135352       6.40166422
C        -0.61575801      -9.73984803       1.52032270
C        -1.73780348     -10.76627401       1.38264682
C        -3.12986194     -10.16377219       1.55651544
C        -4.22398336     -11.16637896       1.21336976
C        -6.50757436      -3.49672062       2.20944728
H        -8.09081012       0.44489870      -2.59876405
H        -9.22460811      -0.81330413      -3.08822602
H        -7.68714138      -1.26211293      -2.34603606
H        -9.96052561       0.23960080      -0.96438473
H        -8.40540209      -0.14155542      -0.22822889
H        -8.88323950      -2.57407361      -0.49958052
H       -10.39393068      -2.16240402      -1.31316540
H       -11.22211290      -2.57575325       0.78696851
H       -10.93238841      -0.85351390       0.91555275
H        -9.13398041      -3.08701481       1.95556774
H       -10.25013785      -2.11519422       2.90892992
H        -8.83664625      -0.08445374       2.02001710
H        -7.79525489      -1.97898707       4.17388212
H        -8.91358978      -0.64208096       4.38235177
H        -7.24566987      -0.32404636       3.91427270
H        -6.04089818      -1.58584019      -0.51688098
H        -4.67813916      -2.64256106      -2.08448361
H        -4.36841633      -4.37339340      -1.88634790
H        -2.20136373      -3.87827704      -1.71650282
H        -3.58392347      -1.47142634       0.59819688
H        -3.99060626      -0.72322369      -0.96909097
H        -4.04571390       0.75660562       1.13453638
H        -2.93444729       2.02245328       0.55785955
H        -4.32699698       0.67197939       4.69100499
H        -4.68404320       0.35957731       2.99942722
H        -4.26344168       2.79347816       2.48817385
H        -3.88861225       3.06076438       4.18615245
H        -6.20561786       2.39565868       4.79913891
H        -6.57605809       2.10254639       3.09947911
H        -5.76443655       4.80238895       4.28908809
H        -7.39698077       4.32545423       3.82586213
H        -6.15009647       4.51112541       2.59042684
H        -2.32446479       0.92543038       5.49143067
H        -0.89275117       1.13723167       4.45829758
H        -0.90105693      -1.24153489       3.87766371
H        -2.37864900      -1.49919770       4.82267479
H        -1.16717760      -0.80863131       6.89050931
H         0.30531561      -0.58084544       5.95392854
H        -1.18796751      -3.22836087       6.30344446
H         0.31164385      -2.76854796       7.10599176
H         0.28560482      -3.01517696       5.35654979
H        -4.12933058      -5.25782816       0.57334630
H        -5.70369038      -6.63115313       2.19573654
H        -6.24496493      -5.69705612       3.61961466
H        -3.44617617      -6.33288628       2.97399940
H        -2.95457973      -7.21496629       6.02591074
H        -2.68881951      -5.49097682       6.26638748
H        -1.30760988      -8.16096428       5.30453331
H         0.05536257      -7.21043750       4.68610756
H         1.36709404      -8.92751647       3.84589607
H         1.09388283     -10.50773550       3.10013736
H         0.15920913      -9.56283519       5.82111390
H         1.09748384     -10.96114510       5.35034814
H        -0.82243873     -12.06849481       4.40772749
H        -1.80635872     -10.60262575       4.52489685
H        -0.71146208     -12.19640819       6.89943447
H        -2.37980777     -12.17698208       6.34134485
H        -1.65613275     -10.71571892       7.02000440
H         0.32832341     -10.18961844       1.21722631
H        -0.82986647      -8.90197712       0.85448142
H        -1.59552282     -11.57013966       2.10253542
H        -1.67504710     -11.20305153       0.38416550
H        -3.22509365      -9.28303820       0.91770130
H        -3.26506869      -9.82293236       2.58362501
H        -4.14089221     -11.48131784       0.17511871
H        -5.20735789     -10.72669809       1.36591729
H        -4.14613807     -12.05097924       1.84028056
H        -7.12375303      -3.58740243       3.08506562
