64
strain_lig_127 ligand at complex geometry  charge=0 uhf=0  from=66|CCCCN(CCCC)C(=O)CCC(=O)N(CCCC)CCCC|nitrate
C         0.66870057       3.15801519       3.10391162
C         1.86264095       2.75123136       3.95727180
C         3.02554734       2.22809954       3.10826307
C         2.71047424       0.82879476       2.57735782
N         3.70252752       0.23452693       1.68268953
C         5.08657621       0.22146371       2.15294772
C         6.10393684       1.03416119       1.34085688
C         5.61753102       2.42551164       0.94580946
C         6.59840185       3.10845539       0.00263340
C         3.25687386      -0.50686348       0.66509550
O         2.03896799      -0.70456038       0.45385624
C         4.23054718      -1.14133988      -0.29260070
C         4.36952730      -0.23844988      -1.52981281
C         3.06168161       0.16706548      -2.20159527
O         2.19639978       0.81624636      -1.58634876
N         2.95729227      -0.07993618      -3.51593520
C         3.66044660      -1.14504846      -4.22208644
C         3.35427760      -2.52366103      -3.62813968
C         4.09464133      -3.65415475      -4.34585987
C         5.58227723      -3.67898165      -4.01216160
C         2.03450283       0.72148432      -4.29942959
C         2.77594756       1.59968343      -5.31102259
C         1.81221119       2.25645464      -6.29761398
C         0.88056102       3.24675889      -5.61054789
H         0.32863388       2.34526353       2.46654932
H         0.94396431       3.96634277       2.44423047
H        -0.15908672       3.49937155       3.71843390
H         1.58029768       1.98918359       4.68960654
H         2.20216039       3.62429323       4.51394974
H         3.92742413       2.22084495       3.72292988
H         3.18147982       2.91327159       2.27640907
H         1.77286820       0.88051516       2.00417441
H         2.57208894       0.15462007       3.43440881
H         5.42460849      -0.81611762       2.21776760
H         5.06603639       0.60684389       3.17071549
H         6.40514717       0.49575359       0.44350187
H         6.99879545       1.12953092       1.95758424
H         5.50447291       3.03416759       1.84186297
H         4.63947769       2.34651335       0.46378537
H         7.57866635       3.17181266       0.46322728
H         6.26591366       4.11718318      -0.22256988
H         6.70100475       2.55977871      -0.93089958
H         3.81880430      -2.10847572      -0.59012107
H         5.21639992      -1.30747518       0.13495757
H         5.04654428      -0.71418412      -2.23468578
H         4.82904662       0.70277382      -1.21931622
H         4.73805105      -0.97063427      -4.24771512
H         3.32350453      -1.12700206      -5.26047599
H         2.27963313      -2.69818002      -3.67324029
H         3.63641155      -2.54446710      -2.57781107
H         3.96448242      -3.56507767      -5.42548546
H         3.65492885      -4.60457836      -4.03620592
H         6.08854206      -2.79238690      -4.38475838
H         6.05406505      -4.54619404      -4.46504397
H         5.73399513      -3.74385186      -2.93629405
H         1.47757521       1.34050130      -3.59934737
H         1.32998093       0.08077258      -4.82858828
H         3.48571511       0.99096292      -5.87071451
H         3.34525300       2.36942175      -4.78613853
H         1.22968943       1.47978528      -6.79601996
H         2.38812854       2.77639869      -7.06320427
H         0.18908221       2.73006909      -4.94672918
H         0.29904019       3.79918714      -6.34393756
H         1.46551397       3.96018473      -5.03199587
