39
strain_lig_168 ligand at complex geometry  charge=0 uhf=0  from=63|O=C(c1cccc(C(=O)N2CCCC2)n1)N1CCCC1|nitrate
O        -2.21872916      -0.04099561       1.02463442
C        -2.41708606      -1.11714467       1.63424953
C        -1.24026129      -1.68181593       2.39588586
C        -1.21068478      -2.66310128       3.38682103
C         0.01152097      -3.01020983       3.94966706
C         1.17182528      -2.36552630       3.53409111
C         1.06426572      -1.38075838       2.55680301
C         2.13478842      -0.43542671       2.06780739
O         1.72352760       0.65623601       1.62079537
N         3.43590375      -0.71023441       2.08197476
C         4.38162033       0.31446228       1.64574607
C         5.72270826      -0.15969328       2.17826896
C         5.59796102      -1.66854534       2.00546462
C         4.15395173      -1.92822339       2.44420775
N        -0.11602552      -1.06911768       2.01523837
N        -3.58768528      -1.72341709       1.56340880
C        -4.09128989      -2.89964798       2.25416500
C        -5.42518845      -3.20370152       1.57132966
C        -5.91367614      -1.81522011       1.17020835
C        -4.62930275      -1.12441711       0.73274552
H        -2.10398931      -3.14579217       3.73966435
H         0.05881286      -3.76247651       4.72911964
H         2.11927461      -2.61287693       3.98240286
H         4.06790105       1.28562215       2.01857362
H         4.39710218       0.35025280       0.55378293
H         5.82005921       0.09138963       3.23131189
H         6.56518068       0.27127663       1.64403292
H         6.32111714      -2.22940125       2.59179266
H         5.73260763      -1.93397961       0.95797342
H         4.13162519      -2.07286922       3.52432979
H         3.71934870      -2.80446591       1.96224515
H        -4.26682791      -2.64856029       3.30308710
H        -3.41342486      -3.75029857       2.19193450
H        -6.11915644      -3.72238448       2.22932030
H        -5.26456205      -3.82801881       0.69284330
H        -6.33797330      -1.30577699       2.03462490
H        -6.66756785      -1.83279113       0.38775037
H        -4.64889236      -0.04565006       0.87785337
H        -4.38907546      -1.31431405      -0.31829775
