85
strain_lig_049 ligand at complex geometry  charge=0 uhf=0  from=66|CCCCCCCCN(C)C(=O)C(CCCCCC)C(=O)N(C)CCCCCCCC|nitrate
C        -8.97779856      -4.78316871      -4.85025854
C        -8.81310902      -5.44699031      -3.48641860
C        -8.73647861      -4.48536986      -2.29877725
C        -7.47821705      -3.61343742      -2.25881997
C        -7.62559710      -2.32301736      -3.06188878
C        -6.49173776      -1.30536453      -2.90026778
C        -5.24124291      -1.59691715      -3.73876456
C        -4.29305481      -2.65010321      -3.14756817
N        -3.54268834      -2.19687867      -1.98744476
C        -4.07982111      -2.47641514      -0.67057658
C        -2.35588317      -1.59893085      -2.02281059
O        -1.68636746      -1.42422647      -0.99003726
C        -1.82382994      -1.19277354      -3.38635592
C        -0.79283770      -2.25860589      -3.83641893
C         0.09604514      -2.76873331      -2.70247726
C         1.34752366      -3.45869646      -3.23418660
C         1.02376818      -4.75792158      -3.97178442
C         2.22754692      -5.68443281      -4.12528292
C         3.37114280      -5.09322356      -4.93964358
C        -1.28806345       0.23984515      -3.34258969
O        -0.94380179       0.77119602      -2.27512835
N        -1.24734571       0.90766711      -4.50687469
C        -0.93306687       2.32868149      -4.46454705
C        -1.85576799       0.41091821      -5.74545090
C        -1.24152912       0.85854066      -7.07891484
C         0.02997036       0.13276059      -7.53842443
C        -0.11383432      -1.37073966      -7.80475638
C         1.10982051      -1.94607583      -8.54287289
C         2.12735617      -2.62019984      -7.62563415
C         3.32763168      -3.20076001      -8.37780256
C         4.30855042      -2.15540168      -8.89893337
H        -9.23502392      -5.53074089      -5.59613330
H        -8.06074710      -4.29976394      -5.17847199
H        -9.77501733      -4.04399361      -4.82658759
H        -7.92325065      -6.08281388      -3.49863334
H        -9.67312443      -6.09781515      -3.32527222
H        -8.76747341      -5.09068139      -1.39194798
H        -9.61904314      -3.84619296      -2.29156528
H        -6.64513907      -4.21274662      -2.62828259
H        -7.27173140      -3.34320636      -1.21958881
H        -8.55039005      -1.84493306      -2.73853982
H        -7.74151980      -2.55126251      -4.11820455
H        -6.22714681      -1.20267156      -1.84645190
H        -6.87782958      -0.33937183      -3.23168690
H        -4.69131637      -0.66018006      -3.87444386
H        -5.55807859      -1.94349471      -4.72583671
H        -3.59613409      -2.99225725      -3.91424595
H        -4.86849275      -3.51473899      -2.82185330
H        -4.93624672      -3.13986862      -0.75309017
H        -4.38223874      -1.53910461      -0.20230476
H        -3.28652370      -2.90878185      -0.06042044
H        -2.65778937      -1.17771762      -4.07952815
H        -0.16478493      -1.86310682      -4.63366537
H        -1.33679969      -3.10879871      -4.24888161
H        -0.47635532      -3.46151125      -2.08342461
H         0.39777787      -1.92956143      -2.06445300
H         2.02412671      -3.66203084      -2.40095722
H         1.84785638      -2.75958988      -3.90295203
H         0.62941831      -4.52057269      -4.95896080
H         0.24823947      -5.29923900      -3.42371086
H         1.89299697      -6.59742138      -4.61703074
H         2.58834263      -5.95853020      -3.13211435
H         3.04002082      -4.86618640      -5.94785573
H         4.18313462      -5.81135992      -5.01370156
H         3.76050652      -4.18140307      -4.49116375
H        -0.63595072       2.58583279      -3.44811790
H        -1.82534216       2.89869783      -4.73304296
H        -0.11856368       2.55695782      -5.15167695
H        -2.89718440       0.75352788      -5.73168395
H        -1.85007729      -0.67584125      -5.75452018
H        -1.06165072       1.93417103      -7.07821663
H        -2.01051233       0.66342600      -7.82852935
H         0.83423063       0.30435338      -6.83061641
H         0.32618396       0.59900204      -8.47917413
H        -1.00392278      -1.52787560      -8.41504260
H        -0.25540119      -1.92076221      -6.86991505
H         1.59696963      -1.14831329      -9.10196988
H         0.77858143      -2.69229982      -9.26335775
H         1.62810800      -3.43024855      -7.08984310
H         2.49149790      -1.91347664      -6.87723605
H         2.96304368      -3.79620132      -9.21436685
H         3.87680943      -3.87299514      -7.71427923
H         3.84349075      -1.49148025      -9.62224905
H         5.13932731      -2.65265362      -9.39312567
H         4.71264662      -1.55624164      -8.08448064
