41
strain_lig_149 ligand at complex geometry  charge=0 uhf=0  from=66|CCN(CC)C(=O)COCC(=O)N(CC)CC|nitrate
C        -0.50201025      -4.96168077      -3.11042201
C        -1.13168139      -5.03891295      -1.72073102
N        -0.39485928      -4.22326533      -0.76348883
C         0.76201150      -4.85144190      -0.12068978
C         2.12417692      -4.37125057      -0.61011871
C        -0.66830747      -2.93773277      -0.58333822
O         0.06748952      -2.13622439       0.02282191
C        -1.99512977      -2.39637390      -1.14972608
O        -2.08534212      -1.00900025      -0.84984947
C        -3.25740496      -0.53492422      -0.18314490
C        -2.88383879      -0.10017719       1.24226802
O        -1.67527645      -0.16787828       1.55491171
N        -3.80162569       0.36383398       2.07233472
C        -5.18467234       0.56551233       1.66870290
C        -6.01103808      -0.71036266       1.79193484
C        -3.37579338       0.68842724       3.43706765
C        -2.97908636      -0.55829513       4.22285042
H        -1.14971064      -5.46301577      -3.82404012
H         0.46862678      -5.44944324      -3.11184474
H        -0.36873430      -3.93002884      -3.43206944
H        -1.10947955      -6.06620563      -1.36006020
H        -2.17798010      -4.74046675      -1.76777895
H         0.68645489      -5.92191035      -0.30824475
H         0.68755265      -4.68281126       0.95639736
H         2.21316661      -4.46643578      -1.69016549
H         2.88465152      -5.00351117      -0.15662410
H         2.30678102      -3.34170046      -0.31059403
H        -2.82861108      -2.95221013      -0.71244404
H        -2.02752901      -2.50476871      -2.24109998
H        -4.04894134      -1.28570811      -0.18184158
H        -3.60041598       0.34826349      -0.74064303
H        -5.19725934       0.94080743       0.64151674
H        -5.61004447       1.33610333       2.31376302
H        -5.63918292      -1.49698622       1.14074827
H        -7.04247554      -0.51140785       1.51871131
H        -5.99365884      -1.07251394       2.81555674
H        -4.19218603       1.19736625       3.94728877
H        -2.51607114       1.36280530       3.36275827
H        -3.79577738      -1.27357563       4.27089775
H        -2.71539718      -0.28459937       5.24021617
H        -2.11744360      -1.03915814       3.76812155
