119
strain_lig_060 ligand at complex geometry  charge=0 uhf=0  from=66|CCCCCCCCN(CCC(C)CC(C)(C)C)C(=O)COCC(=O)N(CCCCCCCC)CCC(C)CC(C)(C)C|water
C         3.33091566      -5.85949915      -6.35566675
C         2.10488721      -6.29968542      -7.15135499
C         0.80051614      -5.65192758      -6.67617886
C         0.75422377      -4.14695898      -6.93605276
C        -0.59283507      -3.49685927      -6.60906153
C        -0.95294357      -3.57158115      -5.12490331
C        -2.23122932      -2.81574381      -4.75286589
C        -2.16547590      -1.29005994      -4.91525118
N        -1.16672089      -0.64688761      -4.06565671
C         0.07383098      -0.15847274      -4.67795967
C         1.34186133      -0.96517958      -4.38613527
C         2.60777421      -0.10827201      -4.57382053
C         2.58143542       0.52492228      -5.96913746
C         3.89476193      -0.94573897      -4.43623879
C         4.48731468      -1.22536014      -3.03671276
C         5.19465108       0.00121469      -2.45325759
C         5.52488572      -2.34386247      -3.18621568
C         3.45107266      -1.69612191      -2.00755035
C        -1.36654674      -0.36748041      -2.79310824
O        -0.45168181       0.08568138      -2.05729881
C        -2.77277126      -0.50504008      -2.18343146
O        -2.63402320      -0.31700343      -0.77854995
C        -3.75279317       0.21871288      -0.06716236
C        -3.30102210       1.58444765       0.51040597
O        -2.07009110       1.83757911       0.43538546
N        -4.21702800       2.43425854       0.95573765
C        -4.11727550       3.86705730       0.68586935
C        -4.97776679       4.21462486      -0.54091008
C        -4.51327377       3.57483836      -1.84807853
C        -3.04726215       3.87676084      -2.13980952
C        -2.66380131       3.68297515      -3.60396099
C        -1.30404748       4.28962582      -3.94180443
C        -0.09781936       3.51395624      -3.41803067
C         0.09536916       3.44341554      -1.90230921
C        -5.41778224       1.96413716       1.64251499
C        -5.05256066       1.14732377       2.90272835
C        -5.16354720       1.83090468       4.29551016
C        -6.16830164       2.97740221       4.36579753
C        -3.79734140       2.26152516       4.86316882
C        -3.21202172       1.32305769       5.93789757
C        -3.97054290       1.47769107       7.25592068
C        -3.23597973      -0.13681702       5.47705610
C        -1.74455139       1.70713272       6.16875134
H         4.20031335      -6.43077036      -6.67023118
H         3.55171932      -4.80528672      -6.51238318
H         3.17942891      -6.03452856      -5.29084957
H         2.25995341      -6.07090586      -8.20723861
H         2.00419339      -7.38382547      -7.05976409
H        -0.03019279      -6.12577335      -7.20245692
H         0.68214741      -5.85828118      -5.60902656
H         1.54204218      -3.65689755      -6.35918927
H         0.96606485      -3.97634579      -7.99327641
H        -0.54236954      -2.45415941      -6.92681216
H        -1.37693492      -3.98088897      -7.19242536
H        -1.09707085      -4.61951976      -4.85841519
H        -0.12619398      -3.19314459      -4.52216083
H        -3.04883288      -3.17335489      -5.38009854
H        -2.47978654      -3.06083688      -3.71831538
H        -1.93153754      -1.06230317      -5.95389754
H        -3.14882048      -0.86521285      -4.70512230
H        -0.09070315      -0.08516724      -5.75074629
H         0.22993391       0.84490446      -4.27369392
H         1.28557686      -1.31822554      -3.35828959
H         1.40359059      -1.82230863      -5.05381761
H         2.60024266       0.68628446      -3.81990772
H         2.52745110      -0.25188987      -6.72805904
H         1.73537587       1.19543437      -6.09578110
H         3.48116544       1.10374070      -6.14867892
H         3.72811481      -1.89858185      -4.94251297
H         4.67447452      -0.43368572      -5.00244941
H         5.83629778       0.47302624      -3.19008430
H         4.48143489       0.73427933      -2.08097367
H         5.82232639      -0.30262906      -1.61869952
H         6.30537096      -2.05920897      -3.88318946
H         5.99177582      -2.55402782      -2.22721024
H         5.06587061      -3.26099988      -3.54565120
H         2.73000219      -0.90537604      -1.78493760
H         2.95334951      -2.59304464      -2.37008801
H         3.97782797      -1.94586134      -1.08862751
H        -3.39846066       0.27354975      -2.64141591
H        -3.22253631      -1.48686662      -2.37917964
H        -4.61146874       0.37547529      -0.72954257
H        -4.04450882      -0.49319490       0.71017039
H        -4.49453373       4.42275818       1.54528913
H        -3.06960780       4.12783833       0.53381536
H        -6.01218371       3.92656795      -0.34827838
H        -4.95206975       5.29828643      -0.65646874
H        -4.67179517       2.49402614      -1.82458098
H        -5.13621887       3.96503152      -2.65159529
H        -2.85682065       4.91597825      -1.87144403
H        -2.43080999       3.24088798      -1.50751651
H        -2.68031409       2.61833825      -3.86772004
H        -3.41750642       4.17184296      -4.22157537
H        -1.21294420       4.31546226      -5.02987584
H        -1.26211276       5.31800825      -3.57762805
H        -0.15466058       2.50150821      -3.81179313
H         0.79101501       3.97472292      -3.84983555
H        -0.14960674       4.39896244      -1.43689421
H        -0.51850435       2.66138878      -1.43151343
H         1.13426921       3.19302118      -1.69825085
H        -6.00112231       2.84117418       1.92352561
H        -6.02867127       1.35841463       0.96663349
H        -5.69386405       0.26446874       2.92214670
H        -4.01992592       0.80797745       2.78251461
H        -5.54968642       1.06309904       4.96624595
H        -5.78426257       3.88663811       3.91035396
H        -7.10882960       2.70024668       3.89900041
H        -6.37702332       3.19802693       5.40961806
H        -3.06381790       2.34187788       4.05906210
H        -3.89556745       3.24417023       5.32588327
H        -5.02450283       1.24595876       7.14142834
H        -3.56385004       0.81626020       8.01609378
H        -3.88492293       2.49794055       7.61896613
H        -4.24126005      -0.53969444       5.40292476
H        -2.75137822      -0.22653591       4.50236066
H        -2.69083603      -0.73931351       6.19519306
H        -1.64853490       2.76308480       6.40384877
H        -1.32963233       1.14083653       6.99910278
H        -1.15056673       1.49208855       5.27972137
