74
strain_lig_153 ligand at complex geometry  charge=0 uhf=0  from=66|CCc1ccc(N(CC)C(=O)c2ccc3ccc4ccc(C(=O)N(CC)c5ccc(CC)cc5)nc4c3n2)cc1|nitrate
C        -3.24813250       8.69845237      -1.09510816
C        -2.01830919       7.87807491      -1.50547139
C        -2.34720192       6.42072373      -1.52037349
C        -1.78918267       5.52842865      -0.60991763
C        -2.17963424       4.20153336      -0.57075971
C        -3.13233977       3.73474881      -1.46749668
N        -3.64273387       2.39399217      -1.38668938
C        -5.10167161       2.29454888      -1.42449079
C        -5.76892173       3.26863808      -0.45608421
C        -2.78874635       1.39586981      -1.20949068
O        -1.54704244       1.60608965      -1.15239811
C        -3.19523134      -0.04080250      -0.95002790
C        -4.29210977      -0.79183273      -1.41411973
C        -4.55432074      -2.02403382      -0.85133459
C        -3.72866661      -2.52615667       0.17456551
C        -4.01196338      -3.64463582       1.02047174
C        -3.27909417      -3.89431348       2.14361574
C        -2.15909413      -3.07832016       2.50761117
C        -1.51680614      -3.02824293       3.76450415
C        -0.69866797      -1.96428424       4.08779154
C        -0.39705058      -1.00220069       3.10032108
C        -0.00208278       0.45737056       3.20987958
O        -0.17692151       1.15238581       2.17437446
N         0.27098183       1.04507012       4.36325247
C         0.24046670       2.51351355       4.33128903
C         0.82720678       3.17990671       5.55556155
C         0.59187020       0.35324311       5.55928563
C        -0.22048148       0.45044565       6.68468009
C         0.12608921      -0.22909016       7.83887125
C         1.27596148      -1.01210079       7.90719677
C         1.62932756      -1.74419827       9.16603346
C         1.60370402      -3.26556725       8.97135965
C         2.06466623      -1.11699914       6.76087453
C         1.72998807      -0.44760749       5.59985026
N        -0.80209948      -1.18714499       1.84958394
C        -1.73894074      -2.10296286       1.58083004
C        -2.56206818      -1.77892314       0.44290866
N        -2.31232649      -0.58512269      -0.11910034
C        -3.65145433       4.59946187      -2.42299237
C        -3.26915224       5.92291001      -2.43789717
H        -3.00344784       9.75852376      -1.09470542
H        -3.57538446       8.42072447      -0.09344805
H        -4.07401988       8.53897257      -1.78728790
H        -1.20497293       8.07837679      -0.80732360
H        -1.70674932       8.19475529      -2.50274661
H        -1.04732898       5.87417453       0.09156374
H        -1.76940204       3.52838604       0.17216787
H        -5.40321749       1.28348984      -1.15656186
H        -5.43601837       2.51461411      -2.44405544
H        -5.42298200       3.11124768       0.56380113
H        -6.83982504       3.09291141      -0.47967221
H        -5.59770839       4.30432280      -0.73840863
H        -4.90456175      -0.40956020      -2.21881789
H        -5.42228197      -2.58224623      -1.16760672
H        -4.89607796      -4.22955250       0.81177118
H        -3.59209885      -4.67893348       2.81701246
H        -1.75210917      -3.77421306       4.50942991
H        -0.32056000      -1.85533852       5.09313215
H        -0.80404583       2.80785924       4.19307576
H         0.78849712       2.80979929       3.43139467
H         0.25539220       2.96059031       6.45083930
H         0.79086007       4.25205497       5.38757028
H         1.86068847       2.87759691       5.70352681
H        -1.13181016       1.03061639       6.64658815
H        -0.51465779      -0.15235183       8.70226696
H         0.92676369      -1.48059017       9.95861884
H         2.63142506      -1.44829909       9.48550274
H         0.61398307      -3.59610211       8.65488201
H         1.84156996      -3.76164098       9.91025313
H         2.33415736      -3.58143665       8.22731572
H         2.94929086      -1.73315384       6.77238820
H         2.34526900      -0.53321380       4.71303804
H        -4.36516992       4.24473246      -3.14797471
H        -3.71802828       6.57295706      -3.16931749
