114
strain_lig_071 ligand at complex geometry  charge=0 uhf=0  from=63|CCCCCCCCN(CCCCCCCC)C(=O)CNCC(=O)N(CCCCCCCC)CCCCCCCC|water
C        -2.26473146      -7.25302562       2.23219148
C        -2.97356132      -6.31535436       1.26082750
C        -3.96523761      -5.39562802       1.97155224
C        -4.47900708      -4.26237715       1.08091316
C        -5.64279932      -3.53533798       1.75019774
C        -6.11287800      -2.27436903       1.02694291
C        -5.09313368      -1.13229985       0.93594017
C        -4.46685066      -0.74197612       2.28316096
N        -3.96565910       0.62700714       2.22092570
C        -4.72235374       1.63639341       2.94830540
C        -4.12960804       1.89960420       4.34235651
C        -4.65366944       3.19919530       4.95879167
C        -4.18205711       3.40093515       6.40232420
C        -2.66783090       3.47900969       6.60502372
C        -2.01857206       4.66642949       5.89697968
C        -0.55446258       4.84321287       6.29596606
C         0.07525355       6.06694346       5.63563028
C        -2.89116210       0.87145795       1.49169965
O        -2.21609999      -0.04141324       0.96031593
C        -2.45791354       2.30431499       1.22726473
N        -1.67699403       2.30354145      -0.01013812
C        -2.46443430       2.56621870      -1.21746183
C        -1.53607451       2.38370892      -2.42380460
O        -0.64901451       1.51046056      -2.34293431
N        -1.73312471       3.12670608      -3.50763988
C        -2.44889059       4.39793620      -3.48943714
C        -3.96944776       4.29903703      -3.62312264
C        -4.43718411       4.09526574      -5.06636009
C        -5.81243603       4.69883352      -5.35621853
C        -6.97216703       4.15148115      -4.51753773
C        -7.17559003       4.73849920      -3.11272471
C        -7.47503867       6.23851122      -3.11949698
C        -7.83380175       6.77746880      -1.73691945
C        -1.23994011       2.65377854      -4.80264716
C        -0.24698626       3.57160157      -5.50548159
C         1.13541951       3.52948518      -4.85216901
C         1.83832523       4.88486428      -4.91773071
C         1.30642789       5.87502583      -3.88167537
C         2.12557433       7.16395181      -3.88503687
C         1.60591526       8.17831743      -2.87130770
C         2.44380681       9.44791631      -2.82016216
H        -1.49543258      -7.82652452       1.72229889
H        -2.96509111      -7.95543297       2.67236254
H        -1.79717449      -6.69507466       3.04069706
H        -3.50314222      -6.90710388       0.51156776
H        -2.22512267      -5.71223657       0.73798768
H        -3.48930664      -4.95948820       2.85420772
H        -4.80871853      -5.99021679       2.32191268
H        -4.80321852      -4.66815108       0.11902285
H        -3.66818318      -3.55175109       0.89477398
H        -5.36484089      -3.28336570       2.77455046
H        -6.48735841      -4.22343391       1.80352560
H        -6.99856852      -1.90177478       1.54484357
H        -6.41434156      -2.53328150       0.01026937
H        -5.61830085      -0.25542555       0.54543264
H        -4.30092872      -1.37317703       0.22063659
H        -3.64006185      -1.40578167       2.54695196
H        -5.21407128      -0.78706133       3.07208515
H        -5.74544997       1.27271119       3.04143154
H        -4.77304770       2.56538152       2.37889333
H        -3.04134759       1.94474879       4.25026719
H        -4.37453768       1.06887472       5.00885206
H        -5.74648024       3.17865310       4.96305836
H        -4.34306604       4.04942511       4.34636822
H        -4.57214194       2.59230223       7.02230874
H        -4.61746655       4.33069785       6.76545205
H        -2.19224418       2.54966569       6.28273765
H        -2.47705798       3.58362906       7.67491315
H        -2.55933242       5.57905504       6.15013963
H        -2.07348346       4.53920852       4.81252216
H         0.00612640       3.94244704       6.02936228
H        -0.48783493       4.95451059       7.37837324
H        -0.00325575       6.00569674       4.54921736
H         1.12725126       6.15748365       5.90511393
H        -0.43859175       6.96967346       5.95908530
H        -1.83377771       2.63919400       2.05941955
H        -3.31325696       2.98201919       1.16663624
H        -0.97205135       3.04224901       0.04180493
H        -2.93578189       3.55179757      -1.20515618
H        -3.25967927       1.81694549      -1.30721799
H        -2.08597369       4.98230562      -4.33522334
H        -2.16478741       4.94782704      -2.58957786
H        -4.38944856       5.22891594      -3.24618235
H        -4.34826700       3.48716295      -3.00164381
H        -4.44417356       3.02679973      -5.28781957
H        -3.72657361       4.57306508      -5.74536232
H        -6.03615626       4.48946601      -6.40290954
H        -5.75683067       5.78152426      -5.25668076
H        -6.86662453       3.06598101      -4.44129905
H        -7.89247514       4.33787950      -5.07272288
H        -6.32166055       4.53836666      -2.46153671
H        -8.03437917       4.22283206      -2.67466892
H        -8.30708346       6.42350768      -3.80071109
H        -6.61072923       6.78906570      -3.49736726
H        -8.63780510       6.19586047      -1.28986640
H        -8.16914384       7.80858697      -1.81672783
H        -6.97556489       6.75454567      -1.06680214
H        -2.11862308       2.51091224      -5.43832782
H        -0.76823374       1.68642018      -4.62626225
H        -0.61606642       4.59492358      -5.52684597
H        -0.17450614       3.25085264      -6.54558630
H         1.74285924       2.78102171      -5.36351676
H         1.03745485       3.22007520      -3.80548232
H         1.72444378       5.30729313      -5.91772435
H         2.90696793       4.74882641      -4.74523439
H         1.34410701       5.41051609      -2.88925697
H         0.26162782       6.11599629      -4.08793654
H         2.09703812       7.59760143      -4.88491590
H         3.16589135       6.91981932      -3.66117640
H         1.60283114       7.71456927      -1.88159424
H         0.57573292       8.44126163      -3.12144827
H         3.46693325       9.22813330      -2.52941533
H         2.02721423      10.13761841      -2.09202585
H         2.46313226       9.94177248      -3.78687687
