65
strain_lig_128 ligand at complex geometry  charge=0 uhf=0  from=66|CCCCN(CCCC)C(=O)COCC(=O)N(CCCC)CCCC|nitrate
C         5.95484554      -2.48363518       3.04233684
C         5.19937049      -1.77487945       1.92856449
C         4.09690701      -2.62500130       1.29439386
C         2.93830527      -2.89753725       2.26067139
N         1.79269877      -3.48686863       1.56596214
C         1.42801191      -4.87251320       1.82856271
C         0.25987525      -5.05114341       2.81075496
C         0.50301656      -4.49545298       4.21644862
C         1.52955149      -5.30104635       5.00251974
C         1.13252800      -2.71045855       0.72402352
O         1.45710465      -1.52021491       0.50919129
C        -0.06551044      -3.28600569      -0.05595007
O        -0.74882373      -2.26749784      -0.78263014
C        -0.74489450      -2.34393759      -2.20458232
C         0.16620058      -1.25591039      -2.80794897
O         0.73223520      -0.48210473      -2.01676571
N         0.30098408      -1.19397994      -4.13135576
C        -0.31536410      -2.13206390      -5.06712985
C        -1.25087096      -1.52112507      -6.11826016
C        -2.63636267      -1.11948812      -5.60413961
C        -2.65569706       0.19803385      -4.83670870
C         1.26010492      -0.24750952      -4.71291187
C         0.79332743       1.21003848      -4.70455511
C         1.74380481       2.12493431      -5.48383425
C         3.12578992       2.25433996      -4.86034138
H         6.79263475      -1.87597252       3.36770496
H         5.31545270      -2.65933961       3.90080002
H         6.34919165      -3.43414396       2.69657103
H         4.75150816      -0.85582941       2.31184386
H         5.90630239      -1.49339066       1.14655174
H         3.70965987      -2.08713946       0.42672679
H         4.50876942      -3.57348365       0.94484376
H         3.26143060      -3.57784041       3.04585800
H         2.61084246      -1.95490929       2.71141698
H         1.17246798      -5.35385321       0.88329302
H         2.29992313      -5.38752476       2.23019885
H        -0.64840045      -4.58693683       2.42465098
H         0.06688146      -6.12409507       2.88777544
H         0.79664582      -3.44400021       4.16377279
H        -0.44594782      -4.53621838       4.75691108
H         2.51466793      -5.27265240       4.54387016
H         1.61859443      -4.91254275       6.01282660
H         1.21688543      -6.33978310       5.06797758
H         0.26794812      -4.08265353      -0.72760445
H        -0.77342595      -3.71652110       0.66227182
H        -0.42957759      -3.33613613      -2.53505072
H        -1.77364808      -2.16442611      -2.53653131
H         0.49204493      -2.65534574      -5.58985687
H        -0.89050761      -2.87475209      -4.52451991
H        -0.78328010      -0.66589006      -6.60212403
H        -1.39282531      -2.29143551      -6.87955538
H        -3.29986920      -1.01637938      -6.46530578
H        -3.04900664      -1.91703365      -4.98263614
H        -2.30309528       1.00279678      -5.47833594
H        -3.67168978       0.44227183      -4.53655132
H        -2.03152538       0.15887874      -3.94490598
H         2.19040820      -0.32374256      -4.14757753
H         1.44758733      -0.55097533      -5.74456719
H        -0.18914047       1.26507790      -5.17015571
H         0.70270443       1.55075688      -3.67204121
H         1.84025677       1.74910419      -6.50296833
H         1.28952719       3.11623798      -5.54879366
H         3.67193796       1.31851695      -4.90794582
H         3.70400104       3.00115426      -5.39442228
H         3.05127782       2.55842869      -3.81991805
