119
strain_lig_092 ligand at complex geometry  charge=0 uhf=0  from=66|CCCCCCCCN(CCCCCCCC)C(=O)[C@H](C)O[C@@H](C)C(=O)N(CCCCCCCC)CCCCCCCC|nitrate
C         3.20801817      -1.42515564      -4.77563437
C         2.25126153      -0.57870163      -5.60810465
C         2.26755406       0.87020999      -5.12564844
C         1.37282935       1.83659707      -5.90626466
C        -0.09324234       1.83291382      -5.45050951
C        -1.04369986       1.02403738      -6.33901435
C        -2.51894881       1.33670974      -6.06645593
C        -3.12110099       0.70554098      -4.80216163
N        -2.43628927       1.05646992      -3.57306846
C        -2.67415654       2.42526782      -3.09782513
C        -3.41123932       2.50930845      -1.75825196
C        -4.86159525       2.00517024      -1.77973775
C        -5.02363270       0.61760304      -1.15536246
C        -4.97122480       0.69626833       0.37039798
C        -5.31489000      -0.60246145       1.09727546
C        -4.26911391      -1.71274511       0.93709942
C        -4.61246396      -2.71063862      -0.16637383
C        -1.49742898       0.38059563      -2.92945595
O        -0.91908945       0.92101072      -1.95445987
C        -0.97670252      -1.04141682      -3.28186008
C        -2.02290381      -2.10576747      -3.62637344
O        -0.18332340      -1.33770060      -2.10636988
C         0.30734792      -2.66532957      -1.91905699
C        -0.78431138      -3.52856382      -1.26726390
C         1.38479801      -2.54521142      -0.81579381
O         1.36624625      -1.49346678      -0.15914053
N         2.16577736      -3.57092586      -0.49230677
C         2.97148603      -3.65907486       0.75076464
C         3.19648289      -2.37101601       1.54494286
C         4.41522134      -2.36423676       2.50023698
C         4.10596530      -2.43757001       4.00525533
C         5.01893782      -1.55773881       4.88305886
C         4.35513504      -0.27527438       5.40838811
C         3.32636104      -0.51108234       6.51513512
C         2.81329782       0.78542138       7.13439374
C         2.36289993      -4.72952955      -1.35905138
C         3.61346013      -4.52930289      -2.22103771
C         4.22252017      -5.78178932      -2.85992653
C         3.57736211      -6.23552843      -4.17769993
C         2.77165469      -7.53354408      -4.07820783
C         2.72399920      -8.33212856      -5.38706411
C         1.74163121      -7.87052673      -6.46574816
C         1.99788600      -6.47880288      -7.03530525
H         3.19866010      -2.46304015      -5.10073416
H         2.93749434      -1.37394370      -3.71949778
H         4.22188718      -1.04644231      -4.88272347
H         1.24249819      -0.99814967      -5.55191736
H         2.55431212      -0.61134684      -6.65556757
H         3.29556072       1.22478767      -5.20011804
H         1.99223490       0.90486046      -4.06567248
H         1.43844638       1.62710688      -6.97431699
H         1.76338835       2.84377719      -5.75374057
H        -0.46105192       2.86139732      -5.44633485
H        -0.11712871       1.48098710      -4.41868115
H        -0.87278983      -0.05192239      -6.25569254
H        -0.83982704       1.30534657      -7.37459264
H        -3.11890134       0.96386278      -6.89913254
H        -2.64468411       2.41940089      -6.03871468
H        -3.15564823      -0.36942943      -4.92857704
H        -4.15515431       1.04729369      -4.70820674
H        -3.24477588       2.94681985      -3.86483346
H        -1.70245859       2.91640531      -2.97947303
H        -3.39109555       3.56243494      -1.47798517
H        -2.85024286       1.95865421      -1.00030576
H        -5.24475217       2.00219276      -2.80126037
H        -5.48855932       2.69608682      -1.21562275
H        -4.23627700      -0.03810473      -1.53593031
H        -5.98893212       0.20187332      -1.45230890
H        -5.68384386       1.45912829       0.69103147
H        -3.97764159       1.01314587       0.69189323
H        -6.28811430      -0.97038719       0.76786868
H        -5.40545272      -0.35896847       2.15733833
H        -4.21507155      -2.26820876       1.87583884
H        -3.28440416      -1.26028676       0.75894866
H        -5.59431806      -3.14037205       0.02090871
H        -3.88737958      -3.52504129      -0.19444838
H        -4.64098966      -2.23340186      -1.14304268
H        -0.28990217      -0.94615378      -4.14149372
H        -2.85615069      -2.09557314      -2.92702429
H        -1.56916732      -3.09346470      -3.62255512
H        -2.40982829      -1.97472775      -4.63378903
H         0.70719336      -3.05849793      -2.85990987
H        -0.52454283      -3.70150330      -0.22759109
H        -0.92501618      -4.48292864      -1.75391241
H        -1.72355570      -2.98187763      -1.26845553
H         3.94632925      -4.05396251       0.45914279
H         2.48579553      -4.41362715       1.37912210
H         2.28024409      -2.14408859       2.08933754
H         3.36419125      -1.57734495       0.82276622
H         4.94249116      -1.42448515       2.33355457
H         5.09724315      -3.17279033       2.24354496
H         4.17481955      -3.47280597       4.34343463
H         3.08049002      -2.10838172       4.17711836
H         5.90894446      -1.28298603       4.31303003
H         5.36942810      -2.12719220       5.74600304
H         3.87881660       0.26766931       4.58713896
H         5.14245544       0.36721678       5.80447268
H         3.78683150      -1.11013824       7.30044243
H         2.47518958      -1.07651791       6.13070238
H         3.63355776       1.35305479       7.56718775
H         2.10288546       0.56508752       7.92867824
H         2.31561659       1.41660417       6.39953939
H         1.49227995      -4.88232440      -1.99026055
H         2.47544317      -5.60527486      -0.71764503
H         4.38650617      -4.09494583      -1.59077609
H         3.39682247      -3.79832401      -3.00095661
H         4.23815807      -6.60231950      -2.14138754
H         5.26367423      -5.53615012      -3.07057562
H         4.37230483      -6.40868194      -4.90350418
H         2.96446481      -5.42279685      -4.56660158
H         1.75776727      -7.34333744      -3.72216730
H         3.26300921      -8.17314132      -3.34100983
H         2.45967394      -9.36124789      -5.13625409
H         3.72777958      -8.36023001      -5.81358683
H         0.72197403      -7.92745106      -6.07910358
H         1.81061312      -8.58905112      -7.28441003
H         1.74664461      -5.70173404      -6.31610365
H         1.38546505      -6.31837952      -7.92129758
H         3.04326710      -6.37066033      -7.31915505
