102
strain_lig_055 ligand at complex geometry  charge=0 uhf=0  from=63|CCCCCCCCN(C)C(=O)COCC(=O)NCc1cccc(CNC(=O)COCC(=O)N(C)CCCCCCCC)c1|nitrate
C         5.23084066      -2.98820026      -3.86174582
C         5.55454222      -4.19758806      -2.99028341
C         6.61536582      -3.89576736      -1.92997089
C         6.13049205      -3.08301728      -0.72349575
C         5.18082960      -3.85295974       0.20441594
C         5.15023064      -3.26128320       1.61766576
C         4.35485987      -4.12690943       2.61061266
C         3.04996135      -3.51654731       3.14286823
N         1.98661696      -3.31993733       2.16184414
C         1.56899434      -4.49913542       1.41941007
C         1.24143511      -2.22046100       2.07392207
O         0.28708211      -2.10065537       1.28277423
C         1.55787191      -1.03613505       2.99642636
O         0.74781352       0.07530811       2.61341253
C        -0.24239292       0.45332414       3.55971287
C        -1.52318005       0.81355358       2.81443748
O        -1.70408589       0.39463458       1.66123221
N        -2.42303424       1.55684435       3.44111766
C        -3.71791861       1.84455039       2.82080702
C        -4.72868569       0.78788498       3.19456499
C        -5.76026712       1.06753904       4.07964875
C        -6.61824140       0.06102649       4.48459026
C        -6.43222981      -1.23371751       4.03486700
C        -5.41206247      -1.52983089       3.13764990
C        -5.18146273      -2.95049101       2.67547888
N        -3.78357991      -3.32065846       2.79302481
C        -3.30842005      -4.06851280       3.81190032
O        -3.98458201      -4.61504008       4.65231264
C        -1.76980554      -4.07650383       3.81418181
O        -1.30839724      -2.76769779       4.12782403
C        -1.40719606      -2.51780401       5.52535265
C        -0.15708454      -3.11489778       6.21054593
O         0.92333983      -2.68695123       5.80139344
N        -0.28298389      -4.08010280       7.12376725
C        -1.53123453      -4.51438940       7.72199133
C         0.90148991      -4.60824356       7.81227747
C         1.94910796      -5.24661453       6.90300965
C         1.42857077      -6.45773732       6.12213810
C         1.38498698      -7.76008906       6.94454263
C        -0.02490329      -8.27669411       7.25636545
C        -0.63770133      -9.17413050       6.17717059
C        -1.11342322      -8.46464785       4.90942502
C        -2.32621444      -7.57477987       5.15351119
C        -4.58199356      -0.50503070       2.70230287
H         6.09701855      -2.73834792      -4.46791013
H         4.41581821      -3.19496702      -4.54866857
H         4.97532421      -2.10370795      -3.27636449
H         5.93629370      -4.98329077      -3.64081160
H         4.66121295      -4.59857324      -2.50782528
H         7.43086865      -3.34390937      -2.40130266
H         7.03019351      -4.83543354      -1.56229192
H         5.67497490      -2.14888600      -1.06473656
H         7.01589603      -2.81380792      -0.14124758
H         5.55173083      -4.87695102       0.28319345
H         4.16811646      -3.89569185      -0.20555698
H         4.75285686      -2.24139646       1.60782822
H         6.18461457      -3.19356987       1.95823878
H         4.97105954      -4.30083846       3.49390935
H         4.18533208      -5.10682442       2.16531613
H         3.28901321      -2.56260839       3.60558737
H         2.66801749      -4.17542770       3.93023803
H         2.11299110      -5.36238346       1.79178846
H         1.76800787      -4.37907818       0.35331848
H         0.49983247      -4.66420853       1.55697866
H         2.60204177      -0.71443407       2.92102310
H         1.36594607      -1.35735771       4.02809987
H         0.12288799       1.29458775       4.16587219
H        -0.46530825      -0.39941993       4.20994289
H        -2.30406258       1.81669637       4.41326589
H        -3.54909106       1.87754866       1.73921298
H        -4.04135763       2.82336697       3.16863775
H        -5.88865662       2.06790216       4.45878621
H        -7.41607928       0.27696559       5.17651522
H        -7.07099463      -2.02078471       4.40041441
H        -5.48865499      -3.07189640       1.63002055
H        -5.75706454      -3.64786652       3.29179592
H        -3.11812419      -2.79599771       2.23927382
H        -1.38598065      -4.31156935       2.81937524
H        -1.40714525      -4.81259337       4.53826255
H        -2.37401349      -2.85550397       5.90105222
H        -1.35402294      -1.43250815       5.65288979
H        -2.40364353      -4.18213967       7.16771812
H        -1.60912911      -4.14798739       8.75016638
H        -1.55485480      -5.60565696       7.75687310
H         0.54495811      -5.35471389       8.51920769
H         1.36785206      -3.78888739       8.36451310
H         2.78383776      -5.54519559       7.54022209
H         2.32084017      -4.48348592       6.21919573
H         2.08072640      -6.60488654       5.25843131
H         0.43363865      -6.22272311       5.73910433
H         1.91550398      -7.60375359       7.88774095
H         1.93078314      -8.54263195       6.41243115
H        -0.68983189      -7.43487802       7.45854191
H         0.03404496      -8.86718118       8.17256631
H        -1.49316407      -9.68968367       6.61819340
H         0.09504448      -9.93830796       5.90729015
H        -1.38778902      -9.23359442       4.18671953
H        -0.29555413      -7.88709427       4.47512466
H        -3.13369683      -8.15274238       5.59407197
H        -2.69126445      -7.14500699       4.22371529
H        -2.09899283      -6.75652094       5.83160124
H        -3.78589667      -0.71571799       1.99842220
