72
strain_lig_144 ligand at complex geometry  charge=0 uhf=0  from=66|CCN(C(=O)c1cccc(-c2cccc(C(=O)N(CC)c3ccc(C)cc3C)n2)n1)c1ccc(C)cc1C|nitrate
C        -1.76883563       5.25029349      -1.94660574
C        -0.35340146       5.05742151      -2.47321852
N         0.39494110       4.04677830      -1.71494875
C         0.03484583       2.77215033      -1.55933765
O         0.66298962       2.00261677      -0.78662168
C        -1.13339664       2.13622733      -2.29813480
C        -1.62128379       2.47525685      -3.56189999
C        -2.60606984       1.68571756      -4.13347941
C        -3.04292252       0.54495387      -3.48430009
C        -2.51642128       0.25895033      -2.22415702
C        -2.87803088      -0.98508918      -1.49710041
C        -3.76393906      -1.93326403      -2.01411590
C        -3.99809271      -3.09250266      -1.29351705
C        -3.33060824      -3.32277866      -0.09992691
C        -2.46447692      -2.33162923       0.35981836
C        -1.56858396      -2.42073189       1.57208035
O        -0.58111362      -1.63710818       1.58475848
N        -1.74551430      -3.30641512       2.54152925
C        -0.74844603      -3.38873631       3.61265827
C        -1.24356078      -2.76347480       4.90943607
C        -2.89630987      -4.13458071       2.73366890
C        -2.71918315      -5.51168869       2.83912767
C        -3.79892110      -6.33584547       3.08985911
C        -5.07536786      -5.80521009       3.22528038
C        -6.26182430      -6.67328648       3.46429504
C        -5.22606603      -4.42412994       3.13947952
C        -4.16371038      -3.56513011       2.91028328
C        -4.37837291      -2.08088393       2.90831331
N        -2.25587903      -1.19755619      -0.33015251
N        -1.60843809       1.06137699      -1.64895068
C         1.50283053       4.57510757      -0.96388979
C         1.29292350       5.77479500      -0.27674028
C         2.31599258       6.40564313       0.39876046
C         3.58638248       5.83917165       0.44826417
C         4.70878915       6.49222730       1.18585959
C         3.77896537       4.64157737      -0.22619899
C         2.77941393       4.00446277      -0.96000667
C         3.18361134       2.77874156      -1.72543398
H        -2.26243775       6.02022110      -2.52718308
H        -1.76572605       5.56700369      -0.90801829
H        -2.35076139       4.33677997      -2.01247923
H         0.20992163       5.99008413      -2.40142090
H        -0.34649104       4.80309369      -3.53371581
H        -1.24257730       3.30553503      -4.13196301
H        -2.99895976       1.95482391      -5.09996268
H        -3.73254007      -0.11418818      -3.98505165
H        -4.25167982      -1.80811257      -2.96556017
H        -4.68394446      -3.83176670      -1.67190415
H        -3.47188782      -4.25173898       0.43262854
H         0.15845112      -2.88993305       3.26139224
H        -0.54218915      -4.44708365       3.77996259
H        -1.47953430      -1.71152460       4.77141332
H        -0.46259599      -2.85391098       5.65691525
H        -2.12409630      -3.28502968       5.27428789
H        -1.73980884      -5.95195910       2.71582079
H        -3.64749508      -7.39762961       3.19219577
H        -5.97480286      -7.72001828       3.51580889
H        -6.98969699      -6.53884918       2.66425794
H        -6.75067050      -6.38859889       4.39489712
H        -6.21131559      -4.01081427       3.28057866
H        -5.42096597      -1.86787326       3.12401950
H        -4.12760370      -1.62926683       1.94909898
H        -3.75835444      -1.60990638       3.66920162
H         0.32115883       6.24344567      -0.26781798
H         2.12824295       7.35388078       0.88042453
H         4.39079348       7.43440267       1.62587848
H         5.53902976       6.68117409       0.50651834
H         5.07656155       5.83466068       1.97385284
H         4.76674750       4.20332763      -0.20698959
H         4.11019164       2.98862996      -2.25856255
H         2.43699794       2.45057981      -2.44363999
H         3.37096113       1.96541497      -1.02029087
