92
strain_lig_054 ligand at complex geometry  charge=0 uhf=0  from=66|CCCCCCCCN(C)C(=O)COCC(=O)N(CCCCCCCC)CCCCCCCC|water
C         1.12784711      -3.23763146      -1.77654013
C         0.81935126      -2.87618681      -3.22849302
C        -0.60986542      -3.24352450      -3.65520107
C        -1.06353926      -2.59956403      -4.97964722
C        -0.90175877      -1.07385047      -5.14804252
C        -2.10248385      -0.18259625      -4.79890047
C        -1.86205064       1.28400794      -5.17376035
C        -0.77540154       2.01100401      -4.35812441
N        -1.25107599       2.68386311      -3.14014215
C        -1.98498798       3.90782591      -3.39782390
C        -0.89714613       2.23543620      -1.94308477
O        -0.13036183       1.25932677      -1.78763860
C        -1.42509127       2.89789291      -0.65210717
O        -1.54298382       1.91358388       0.38387538
C        -2.88480561       1.65400922       0.82199589
C        -3.16028649       0.15059205       0.73593995
O        -2.16091560      -0.56313674       0.50104526
N        -4.37788980      -0.35701210       0.85473742
C        -5.58533194       0.41678247       1.12067983
C        -6.49517641       0.60810404      -0.10522853
C        -5.86935391       1.37753871      -1.27663769
C        -6.17976353       2.88036107      -1.28234615
C        -5.81398990       3.65243797      -0.01688477
C        -6.01809767       5.15752845      -0.15952729
C        -4.98779317       5.81411474      -1.07502926
C        -5.14356486       7.32901739      -1.06973883
C        -4.56243771      -1.79376529       0.59995030
C        -5.03038715      -2.63122821       1.79861759
C        -3.91619374      -3.22896779       2.65952431
C        -3.05597134      -2.23984817       3.45522278
C        -3.68854391      -1.77620962       4.76997233
C        -4.78450517      -0.72491453       4.63767606
C        -5.17699810      -0.15780354       5.99956949
C        -6.23376081       0.93271474       5.88584263
H         2.19527743      -3.13701273      -1.59231845
H         0.58728408      -2.56553366      -1.07293352
H         0.84872447      -4.26767180      -1.57236206
H         1.01865623      -1.80821143      -3.34472982
H         1.51208554      -3.40470766      -3.88499990
H        -0.64884705      -4.32456183      -3.79929863
H        -1.32304329      -3.04510796      -2.85153701
H        -0.47975049      -3.06715387      -5.77374877
H        -2.10531726      -2.87720291      -5.14827135
H        -0.01604871      -0.73607129      -4.60959835
H        -0.68968887      -0.89991441      -6.20409265
H        -2.96092576      -0.53639754      -5.37071412
H        -2.37651596      -0.21419816      -3.74468462
H        -1.55669841       1.32126180      -6.21860973
H        -2.80995728       1.81791315      -5.10343984
H         0.01937603       1.32277486      -4.06791524
H        -0.33789727       2.78286947      -4.99330327
H        -1.39178606       4.55762586      -4.04268818
H        -2.90630832       3.68028084      -3.93152695
H        -2.21513871       4.45714960      -2.49300068
H        -0.67959144       3.63586097      -0.32688465
H        -2.38093869       3.40376234      -0.78129371
H        -3.00009082       2.02482954       1.84876302
H        -3.58850529       2.17083958       0.17069831
H        -6.16888866      -0.12627223       1.86710171
H        -5.30710873       1.37619101       1.55364467
H        -6.83947356      -0.36859818      -0.45314820
H        -7.38481485       1.13780296       0.23996295
H        -4.78738849       1.19051790      -1.30694029
H        -6.27941543       0.96554965      -2.20190799
H        -5.66679671       3.31132710      -2.14220301
H        -7.24935813       3.00202014      -1.45216718
H        -6.42120006       3.29071529       0.81160257
H        -4.76434209       3.49989697       0.24224756
H        -7.01920432       5.36336175      -0.53101880
H        -5.93424856       5.61293905       0.82684308
H        -3.97901612       5.55250637      -0.72896307
H        -5.09872676       5.44417254      -2.09692470
H        -4.98321251       7.72179336      -0.06884124
H        -4.43423164       7.80145088      -1.74457641
H        -6.14615125       7.60150562      -1.38515765
H        -5.30995597      -1.87992898      -0.19206474
H        -3.61156779      -2.18016787       0.22067016
H        -5.70982579      -2.05801268       2.42459306
H        -5.60803567      -3.46759910       1.40082971
H        -4.38612251      -3.91621143       3.36645559
H        -3.27166430      -3.83290645       2.01410381
H        -2.12784844      -2.75894121       3.71504637
H        -2.78582497      -1.37766931       2.83769878
H        -4.08585774      -2.64546458       5.29274329
H        -2.89857483      -1.35928476       5.39726375
H        -4.43345175       0.08796166       3.99476951
H        -5.67696745      -1.15472538       4.18541276
H        -5.55678372      -0.96694879       6.62322662
H        -4.29133302       0.24857419       6.49062088
H        -7.13715313       0.54941352       5.41838701
H        -6.49670041       1.30619495       6.87085519
H        -5.86607528       1.76850203       5.29287444
