113
strain_lig_096 ligand at complex geometry  charge=0 uhf=0  from=63|CCCCCCCCN(CCCCCCCC)C(=O)c1ccc(C(=O)N(CCCCCCCC)CCCCCCCC)o1|water
C         4.66801403      -7.27456110       7.45353883
C         3.25989843      -7.36342113       8.03239733
C         2.91592967      -6.18638613       8.95865447
C         2.00676395      -5.11338832       8.34921189
C         2.65191094      -4.19513843       7.29810254
C         2.46782043      -4.66269418       5.85444584
C         2.99672678      -3.62452499       4.86319331
C         2.63048379      -3.92872211       3.39799612
N         1.39295307      -3.31064779       2.93262154
C         0.12750814      -4.03951038       3.04236753
C        -0.93938628      -3.27778688       3.83347097
C        -0.54822553      -3.01812853       5.28351158
C        -1.56704383      -2.13526435       5.99324306
C        -1.09561910      -1.68156152       7.37571591
C        -1.02583769      -2.77402811       8.44382850
C        -2.39081724      -3.27775345       8.91032129
C        -2.25157291      -4.31745177      10.01618591
C         1.37081800      -2.18122615       2.23472538
O         0.33661229      -1.76827747       1.64908046
C         2.55840312      -1.30562108       2.10882017
C         3.72734391      -1.04222318       2.78037032
C         4.26218717       0.13055318       2.21591947
C         3.39895013       0.52099410       1.21743596
C         3.12163051       1.72898841       0.39960098
O         1.92639328       1.84573945       0.01321297
N         4.05630353       2.65157234       0.18384537
C         3.66426125       3.92089026      -0.42318804
C         4.30355832       5.17714214       0.19430623
C         3.28334799       6.08335684       0.88147553
C         2.43548336       6.95789455      -0.04421441
C         1.42281805       7.73230608       0.81046000
C         0.10876120       8.08801990       0.11392637
C        -1.03764445       8.24940325       1.11831450
C        -2.40013420       8.25871932       0.43208606
C         5.48380101       2.40073079       0.29884944
C         6.22253100       2.43896491      -1.04471190
C         7.73322210       2.27114347      -0.84539310
C         8.19834978       0.91680274      -0.30188021
C         8.52729350      -0.12810087      -1.37054581
C         7.35064902      -0.66750640      -2.18571727
C         6.33319187      -1.39216296      -1.30772721
C         5.10259113      -1.84830528      -2.07687577
O         2.37026262      -0.35775521       1.15985471
H         4.84115622      -8.09363837       6.75921528
H         5.40256672      -7.34473247       8.25230804
H         4.82445238      -6.33332263       6.93108984
H         3.18927485      -8.29208175       8.60144539
H         2.52136341      -7.42597845       7.22791147
H         3.83644903      -5.72177456       9.32070275
H         2.39312357      -6.57292680       9.83581499
H         1.66723294      -4.48205756       9.17504651
H         1.12266296      -5.60000056       7.92421540
H         3.71746526      -4.09678080       7.50575346
H         2.20912653      -3.19948868       7.40144514
H         1.40936534      -4.83181539       5.67205892
H         2.98320736      -5.60966324       5.70770007
H         4.08536388      -3.59033790       4.94643459
H         2.60974159      -2.63945963       5.13659331
H         2.54598930      -5.01119910       3.27218362
H         3.42903621      -3.59324350       2.73483968
H         0.32306542      -5.00119500       3.51396439
H        -0.25343350      -4.21497536       2.02929667
H        -1.85674523      -3.87069242       3.81034826
H        -1.13855878      -2.32809410       3.32956493
H         0.42423428      -2.52418971       5.32349325
H        -0.48144851      -3.96318832       5.81692968
H        -2.51832418      -2.66180614       6.07257105
H        -1.72839103      -1.24047929       5.38432845
H        -1.75858307      -0.88410728       7.72298955
H        -0.09502092      -1.25697224       7.26305025
H        -0.50491640      -2.35502121       9.30814250
H        -0.43013200      -3.61285778       8.07872728
H        -2.93260972      -3.72034375       8.07050586
H        -2.98003126      -2.43571238       9.28194240
H        -1.70089562      -5.18305875       9.65541477
H        -3.23040878      -4.64446943      10.35518960
H        -1.72346269      -3.90397224      10.87189831
H         4.16434435      -1.58546133       3.58942587
H         5.16705554       0.60402694       2.53365861
H         2.57758322       3.98312837      -0.33674552
H         3.93162713       3.88967138      -1.48019678
H         4.82885686       5.74539830      -0.57973363
H         5.03703353       4.89312789       0.94800078
H         3.83635680       6.75793005       1.53608436
H         2.63129896       5.46297583       1.50736413
H         1.91361901       6.35076790      -0.79001070
H         3.08842520       7.65303439      -0.57657474
H         1.88831087       8.63849893       1.19555497
H         1.17352651       7.11459877       1.67846171
H        -0.14754714       7.30854471      -0.60909908
H         0.22100780       9.01066207      -0.45425058
H        -0.91051634       9.17659056       1.67674261
H        -1.00074653       7.43709976       1.85433209
H        -2.41414688       9.00336579      -0.36468997
H        -3.17993302       8.50931240       1.15014076
H        -2.62703168       7.27997744       0.00237005
H         5.62096971       1.41367479       0.72054587
H         5.93658193       3.13635767       0.96615723
H         6.07250814       3.39822120      -1.53907692
H         5.83285247       1.65404668      -1.69185006
H         8.07143609       3.05714328      -0.16676244
H         8.22129218       2.44858382      -1.80470194
H         7.46701925       0.51239802       0.39771356
H         9.11639036       1.08892263       0.26081483
H         9.00842910      -0.97001129      -0.87116548
H         9.26034650       0.29693919      -2.05557620
H         7.74546168      -1.36364007      -2.93092196
H         6.86518711       0.14370693      -2.73192420
H         5.99872864      -0.72637909      -0.51048097
H         6.81745786      -2.25063579      -0.84220760
H         4.55921287      -0.99081477      -2.46597852
H         4.43182782      -2.41831477      -1.43616201
H         5.37752291      -2.47715412      -2.91636924
