66
strain_lig_115 ligand at complex geometry  charge=0 uhf=0  from=63|CCCCCCN(CCCCCC)C(=O)COCC(=O)N1CCCCC1|water
C         4.61827432      -3.65404764       3.82565437
C         5.36870445      -2.33001930       3.87311504
C         4.40790560      -1.15047093       4.00073522
C         5.12228351       0.17275675       4.29001847
C         5.96946026       0.74548574       3.15170017
C         5.20500272       1.53770950       2.08169062
N         4.41411259       0.69490006       1.19684699
C         5.16837865      -0.18440207       0.30801561
C         6.20147941       0.50319518      -0.59894978
C         5.75854705       0.49079884      -2.05956090
C         4.75703886       1.61138720      -2.30554084
C         4.16349362       1.56986757      -3.70503388
C         3.35188482       0.29666723      -3.90123250
C         3.10944571       0.50937574       1.33013607
O         2.44475637      -0.31845394       0.67639381
C         2.34999744       1.41191007       2.31412008
O         0.94592696       1.15433932       2.23601503
C         0.36910305       0.60025780       3.41953522
C        -0.20100091      -0.80883184       3.17354338
O        -0.02530678      -1.34670351       2.06345096
N        -0.90322138      -1.36481029       4.15297204
C        -1.57823604      -2.63642847       3.89259174
C        -2.18260158      -3.24164599       5.15304038
C        -3.11125787      -2.23568601       5.82496343
C        -2.33811791      -0.95891053       6.19450541
C        -0.95864357      -0.85148548       5.51750083
H         5.30627537      -4.47889887       3.66107527
H         4.10173910      -3.83125446       4.76604654
H         3.88207663      -3.65394425       3.02295770
H         6.04713173      -2.33595245       4.72486932
H         5.97882178      -2.23351613       2.97532701
H         3.78605338      -1.09526040       3.10331401
H         3.74165809      -1.35438678       4.84117113
H         4.40192617       0.93082686       4.61011921
H         5.79191936       0.00557778       5.13499053
H         6.69366842       1.44214444       3.57571130
H         6.55001462      -0.05415023       2.69177525
H         4.57598079       2.30224542       2.54015037
H         5.94822537       2.05625967       1.47319797
H         5.66298033      -0.94123796       0.91986548
H         4.43213844      -0.71525612      -0.29625156
H         6.38404496       1.53978978      -0.31138973
H         7.15347070      -0.01511284      -0.49814121
H         6.62300862       0.61734142      -2.70993195
H         5.31073963      -0.47617274      -2.29149477
H         3.94983416       1.52657952      -1.57203456
H         5.26401504       2.56532216      -2.15295879
H         3.53038901       2.44513591      -3.86027044
H         4.95823330       1.62175370      -4.44689095
H         2.79694485       0.06377033      -2.99133073
H         2.67163632       0.41149591      -4.74399177
H         3.99497756      -0.54362249      -4.12522274
H         2.69972638       1.24322699       3.33743962
H         2.52159824       2.46340782       2.04593184
H         1.11001490       0.57113670       4.22871211
H        -0.46936964       1.25379379       3.69803949
H        -2.37555624      -2.44068079       3.16438661
H        -0.87262432      -3.33066246       3.43206170
H        -2.75791301      -4.12185879       4.86756354
H        -1.41028448      -3.57278050       5.84943225
H        -3.93307551      -2.00059238       5.14011011
H        -3.55786257      -2.68085867       6.71588233
H        -2.93565505      -0.07400855       5.96509275
H        -2.15939892      -0.93234432       7.27064527
H        -0.67237851       0.19907284       5.52815796
H        -0.22767594      -1.40861513       6.11340829
