155
strain_lig_047 ligand at complex geometry  charge=0 uhf=0  from=66|CCCCCCCCCCN(CCCCCCCCCC)C(=O)[C@H](CCC)O[C@H](CCC)C(=O)N(CCCCCCCCCC)CCCCCCCCCC|nitrate
C         3.87411846       0.69803824      -7.56616052
C         5.23585723       1.07774819      -8.13422252
C         5.65383739       2.48934013      -7.71589551
C         6.15513196       2.49652567      -6.27327961
C         6.48843841       3.87857926      -5.70911135
C         5.28802009       4.80596371      -5.51315632
C         4.17845947       4.26870395      -4.60744644
C         4.53136220       4.26562503      -3.11819964
C         3.42177559       3.62417286      -2.28234064
C         3.67112754       3.68606027      -0.76280221
N         3.12634717       2.53415986      -0.05069123
C         4.05131360       1.43070824       0.24164588
C         4.68607703       1.41044469       1.64044073
C         6.04724436       0.69847256       1.66065307
C         6.08891824      -0.76089789       1.21033842
C         7.54067694      -1.19661183       0.95889720
C         7.66574126      -2.50389987       0.14331566
C         8.36707748      -2.24483824      -1.19835644
C         8.25684641      -3.29523751      -2.30752478
C         8.63615817      -2.68050367      -3.67101634
C         7.76654901      -3.20661389      -4.80671462
C         1.83235249       2.33716625       0.18550931
O         1.45054426       1.34435763       0.83592537
C         0.75054331       3.21794181      -0.46793024
C         0.07634094       4.30394739       0.40830484
C         0.51092617       4.44302005       1.87115225
C        -0.18001490       3.42853607       2.76877440
O        -0.19101500       2.23824431      -0.95453626
C        -0.68874827       2.41637049      -2.28658848
C        -2.10139528       3.03785236      -2.29152060
C        -3.06631319       2.47437922      -1.25459545
C        -4.44464222       3.09736749      -1.44098326
C        -0.61186546       1.01288061      -2.92250031
O        -0.55174057       0.03895514      -2.14213966
N        -0.51596912       0.84901495      -4.24245051
C        -0.85601358       1.85513855      -5.24072001
C         0.30717090       2.42464573      -6.05307512
C         1.00170633       3.62742771      -5.42024997
C         0.09820959       4.82804571      -5.12579135
C         0.79748488       5.82088967      -4.19823709
C        -0.14440381       6.74354480      -3.42992389
C         0.63897215       7.47854681      -2.34205354
C        -0.22807349       8.31421156      -1.40490418
C         0.63296295       8.93926789      -0.30867080
C        -0.16548423       9.88181797       0.57741293
C        -0.14120379      -0.47403060      -4.77345442
C        -1.11703734      -0.99340306      -5.83433599
C        -1.47277925      -2.48197521      -5.78376723
C        -2.90057646      -2.66343106      -6.31273224
C        -3.37361722      -4.11881783      -6.38941001
C        -4.86397421      -4.31158806      -6.04268973
C        -5.04018249      -4.96351131      -4.67242051
C        -6.49276670      -5.24897510      -4.26207554
C        -6.82630035      -4.68498228      -2.87060597
C        -7.64550932      -3.40447437      -2.97816118
H         3.65785438      -0.34665468      -7.75977551
H         3.09592258       1.29734189      -8.02901780
H         3.84635755       0.86499428      -6.49039135
H         5.19634067       1.01305271      -9.22074339
H         5.98863516       0.36425300      -7.78950222
H         4.80671664       3.16993189      -7.83049401
H         6.45237539       2.84933763      -8.36571098
H         7.05781057       1.87960785      -6.22839343
H         5.40635125       2.02089944      -5.63898193
H         7.19244075       4.36762150      -6.38266939
H         7.00639443       3.74506943      -4.75906741
H         4.85550410       5.02234572      -6.48914044
H         5.64122444       5.75387863      -5.10574453
H         3.91864452       3.25421497      -4.92065113
H         3.29956747       4.89791514      -4.75369786
H         4.68810634       5.29011403      -2.77778873
H         5.45579551       3.71758109      -2.97055555
H         3.28358265       2.57336773      -2.56231543
H         2.50038299       4.14715239      -2.53284747
H         3.27412627       4.60597588      -0.32804532
H         4.74463698       3.68992541      -0.58123352
H         4.83568017       1.48360928      -0.51041678
H         3.48710932       0.50814629       0.09382442
H         4.00203922       0.93882734       2.34434338
H         4.83430441       2.43613014       1.97953759
H         6.44902486       0.76497980       2.66773240
H         6.73421266       1.24487325       1.01870522
H         5.51779982      -0.87417877       0.28594437
H         5.63898930      -1.40509100       1.96576483
H         8.05240623      -1.29823909       1.91459524
H         8.04955103      -0.39516196       0.41800728
H         6.66398610      -2.91203355      -0.01646621
H         8.22852135      -3.24686283       0.70614763
H         9.41730099      -2.03435048      -0.99458327
H         7.93771828      -1.33991704      -1.61630639
H         7.22871885      -3.66270304      -2.37346284
H         8.88277760      -4.16091203      -2.09478815
H         9.68158470      -2.87647794      -3.90242627
H         8.52590654      -1.59256086      -3.63818449
H         7.81579085      -4.28882531      -4.86701559
H         8.08688374      -2.80422789      -5.76394426
H         6.72836004      -2.91958671      -4.64911714
H         1.17039991       3.72052068      -1.33706775
H         0.24591965       5.26457613      -0.08610305
H        -0.99846267       4.10125234       0.41343745
H         0.22699995       5.45053866       2.18352308
H         1.59469983       4.35994532       1.97602174
H        -1.25821031       3.52109982       2.67688369
H         0.08138834       3.58492615       3.81032783
H         0.10849483       2.41668556       2.48513495
H        -0.02046588       3.08464678      -2.84433106
H        -1.99901030       4.11551491      -2.14084622
H        -2.54594843       2.87212602      -3.27524071
H        -2.71674158       2.67953242      -0.24553929
H        -3.12335467       1.39023524      -1.36335329
H        -4.41961353       4.15976220      -1.21715896
H        -5.16433202       2.62868485      -0.77916322
H        -4.79830129       2.98702145      -2.46404827
H        -1.39038471       2.66276592      -4.75749366
H        -1.55154440       1.38566009      -5.93510311
H        -0.09124742       2.71467712      -7.02582693
H         1.04872661       1.64286800      -6.22474097
H         1.79083847       3.94260941      -6.10227565
H         1.48733832       3.30520310      -4.49733184
H        -0.82637105       4.51191981      -4.63678174
H        -0.18501129       5.32183168      -6.05379363
H         1.52268315       6.42084685      -4.74918640
H         1.35561124       5.25224694      -3.45049159
H        -0.93659046       6.14656343      -2.96677256
H        -0.61694497       7.45919052      -4.10276451
H         1.37904876       8.12801949      -2.81635003
H         1.19024012       6.73744988      -1.74671806
H        -1.00259740       7.68463833      -0.95535885
H        -0.72694074       9.10126623      -1.97379483
H         1.45287438       9.48992548      -0.77591372
H         1.07342797       8.14301930       0.30062829
H        -0.57660567      10.69759309      -0.01088427
H         0.47079371      10.30378367       1.34885268
H        -0.98738488       9.35625642       1.05680323
H        -0.07697569      -1.15906746      -3.92422920
H         0.86081697      -0.36121154      -5.19721670
H        -0.74002667      -0.75053727      -6.82615652
H        -2.05628049      -0.46035979      -5.70281187
H        -1.44213967      -2.84298383      -4.75578265
H        -0.77602182      -3.07878799      -6.37246405
H        -2.96532359      -2.21717615      -7.30582384
H        -3.57200342      -2.10273225      -5.65985161
H        -2.77031204      -4.71183789      -5.70252031
H        -3.17798211      -4.49282334      -7.39278966
H        -5.34141812      -4.93764146      -6.79577471
H        -5.37469865      -3.34504751      -6.04799485
H        -4.59628809      -4.29915457      -3.93006657
H        -4.47522291      -5.89571163      -4.65341981
H        -6.67909335      -6.32511070      -4.28742714
H        -7.17075501      -4.79746923      -4.98769711
H        -5.89947583      -4.48222506      -2.32582706
H        -7.37939471      -5.41633451      -2.28333583
H        -7.22693521      -2.75074023      -3.73831248
H        -7.65954512      -2.86493722      -2.03611318
H        -8.66877800      -3.63076640      -3.26092458
