63
strain_lig_004 ligand at complex geometry  charge=0 uhf=0  from=63|CC(C)(C)c1ccc(NC(=O)c2cc(=O)cc(C(=O)Nc3ccc(C(C)(C)C)cc3)o2)cc1|nitrate
C        -8.10663135       4.72413840      -0.15347776
C        -6.69821456       5.08589647      -0.65640640
C        -6.67233581       4.86666333      -2.17250626
C        -6.44909039       6.58125482      -0.39258667
C        -5.65809717       4.26855207       0.08405388
C        -4.72417758       3.43343683      -0.53167079
C        -3.79047555       2.71215789       0.19518691
C        -3.78588017       2.78346681       1.58525910
N        -2.94543973       1.98858257       2.40410211
C        -1.84195492       1.30309960       2.10423916
O        -1.28865925       1.31855943       0.98235944
C        -1.24086676       0.42753081       3.17739692
C        -1.76358092       0.13396890       4.38208137
C        -1.16742043      -0.89407651       5.25551647
O        -1.55060347      -1.13771116       6.36940338
C        -0.11548301      -1.66709831       4.56533950
C         0.36365124      -1.28477577       3.36954744
C         1.31558824      -2.00163887       2.44554171
O         1.44124037      -1.49123620       1.31510178
N         1.92500214      -3.14532674       2.76644124
C         2.66558873      -3.98307317       1.88421778
C         3.30161605      -5.09892735       2.43574224
C         3.97899185      -5.98519827       1.62702710
C         4.04813041      -5.83737618       0.23757907
C         4.80415607      -6.85213847      -0.59343739
C         4.62584242      -6.68958765      -2.10742714
C         6.29995532      -6.71319239      -0.25470096
C         4.34023164      -8.26920716      -0.21871338
C         3.44595235      -4.69749910      -0.28897657
C         2.77799735      -3.78328667       0.50762191
O        -0.09925248      -0.16636719       2.72197252
C        -4.69756210       3.63159626       2.22189613
C        -5.59972334       4.35807561       1.47720736
H        -8.83264075       5.31639013      -0.70493400
H        -8.23544917       4.93712323       0.90386756
H        -8.32007678       3.67134673      -0.32563538
H        -7.45052705       5.48530074      -2.61633315
H        -6.88176683       3.82724491      -2.42597391
H        -5.71743109       5.17029054      -2.60159098
H        -7.20145113       7.15642673      -0.92579520
H        -5.46789613       6.87978043      -0.75508465
H        -6.52031735       6.83030613       0.66230564
H        -4.72727090       3.32388733      -1.60355085
H        -3.07991886       2.07443595      -0.31648094
H        -3.28332828       1.93110886       3.35870664
H        -2.66104883       0.59056541       4.76440515
H         0.21648211      -2.56474423       5.06019293
H         1.88116991      -3.48940195       3.72055194
H         3.27582175      -5.26184358       3.50506108
H         4.47658191      -6.81100544       2.10547783
H         5.03006115      -5.74876966      -2.47392675
H         3.58042122      -6.77393912      -2.39715474
H         5.17260381      -7.48945374      -2.60162902
H         6.67419622      -5.73001591      -0.53666915
H         6.85895945      -7.46782625      -0.80306182
H         6.47611517      -6.86104085       0.80833380
H         3.28208082      -8.39653127      -0.44223559
H         4.50286238      -8.48347361       0.83408053
H         4.91112866      -8.99008578      -0.79932331
H         3.51566923      -4.49516772      -1.34402021
H         2.37423409      -2.89598838       0.04923970
H        -4.68997834       3.72365062       3.29961592
H        -6.28759175       5.00761011       1.99023248
