31
strain_lig_161 ligand at complex geometry  charge=0 uhf=0  from=63|Cc1ccn(-c2cccc(-n3ccc(C)n3)n2)n1|nitrate
C        -2.97803567       3.54768304      -0.32355149
C        -1.96062009       3.36818208       0.73791906
C        -1.09408994       4.35586075       1.26753345
C        -0.36830874       3.72536604       2.23706929
N        -0.78817866       2.43324457       2.29286946
C        -0.37180246       1.41759028       3.14002587
C         0.52384205       1.61239806       4.19444268
C         0.75100168       0.55285641       5.05582187
C         0.13658046      -0.67467161       4.84994505
C        -0.65045889      -0.80915301       3.71341016
N        -1.14024209      -2.03276563       3.26095586
C        -1.23896832      -3.23196540       3.89590761
C        -1.52333935      -4.17874333       2.94969488
C        -1.60341069      -3.47982452       1.72358287
C        -1.91352357      -4.00774991       0.37312021
N        -1.38522054      -2.18475479       1.93005494
N        -0.91913057       0.21902764       2.89788503
N        -1.76354357       2.21041882       1.36204668
H        -2.49746987       3.54916850      -1.30155390
H        -3.48455777       4.50394174      -0.20608915
H        -3.72003644       2.75077840      -0.28825002
H        -1.02214340       5.38847723       0.98494127
H         0.41604933       4.13400396       2.84223662
H         1.03786765       2.54836393       4.32002892
H         1.44549453       0.65880402       5.87336162
H         0.28953029      -1.49546002       5.53219464
H        -1.14974888      -3.34516565       4.95624506
H        -1.64158509      -5.23412779       3.09766277
H        -2.05580344      -5.08499573       0.40504134
H        -1.11246439      -3.77399128      -0.33048273
H        -2.83395020      -3.54203731       0.01462365
