71
strain_lig_052 ligand at complex geometry  charge=0 uhf=0  from=66|CCCCCCCCN(C)C(=O)COCC(=O)N(C)CCCCCCCC|nitrate
C         0.33852477      -0.65708559      -5.96817719
C         0.78633922       0.72154739      -5.50238941
C         2.30667109       0.83418158      -5.36862033
C         2.85346515       0.05274955      -4.17457090
C         4.37521888       0.13284193      -4.07811890
C         4.93357580      -0.69124714      -2.91807907
C         4.65070904      -0.04125452      -1.56435263
C         4.82841187      -0.99147655      -0.37628409
N         3.88967804      -2.11293331      -0.41105021
C         4.35632053      -3.45797070      -0.67878765
C         2.62181853      -1.85353742      -0.13630897
O         2.21015910      -0.71185811       0.14095390
C         1.61360838      -3.00505097      -0.10279095
O         0.45179683      -2.39200302       0.42484643
C        -0.50636335      -3.21110483       1.06692173
C        -1.35099516      -2.22177092       1.87584966
O        -1.09281234      -1.00080608       1.77295589
N        -2.32453547      -2.63212271       2.66332416
C        -3.06977621      -1.58493594       3.34619075
C        -2.64112996      -4.01457962       2.96838573
C        -2.19246155      -4.43884013       4.37450729
C        -0.68344800      -4.35050875       4.62963847
C        -0.22371675      -2.96803123       5.09558966
C         1.29276660      -2.87480364       5.26235297
C         1.73544090      -1.56974211       5.92797003
C         1.16928678      -0.30555356       5.27915018
C         1.48249825      -0.20275727       3.78839316
H        -0.74236142      -0.68725963      -6.06104610
H         0.76989153      -0.89226518      -6.93667810
H         0.63997946      -1.42730672      -5.26362735
H         0.43986618       1.46409359      -6.22437812
H         0.32034550       0.94290857      -4.53823693
H         2.77252017       0.46272240      -6.28341835
H         2.58574370       1.88677874      -5.26575044
H         2.38724060       0.43117591      -3.26052680
H         2.56609131      -0.99443639      -4.27164130
H         4.80221950      -0.24321331      -5.00817924
H         4.68310192       1.17372939      -3.96836052
H         4.48129012      -1.68277255      -2.94736375
H         6.00991836      -0.80970116      -3.04530498
H         5.32492250       0.80428608      -1.41645233
H         3.62446904       0.32977299      -1.53793189
H         5.84060926      -1.39418585      -0.34857676
H         4.63496498      -0.43175791       0.54698109
H         5.42510437      -3.43750701      -0.87277302
H         4.18106283      -4.11333826       0.17935168
H         3.86177826      -3.88310383      -1.55416664
H         1.45306731      -3.38898965      -1.12304675
H         1.95818024      -3.82110845       0.54538561
H        -1.14728667      -3.72841500       0.33731663
H        -0.00710745      -3.93718175       1.71953742
H        -3.60851157      -0.97968701       2.61282762
H        -3.77456707      -2.03125404       4.03896035
H        -2.38333609      -0.93110599       3.89119353
H        -3.72635706      -4.12930237       2.90385215
H        -2.18675574      -4.65392479       2.21047090
H        -2.71731629      -3.84974945       5.12845758
H        -2.51351797      -5.47327401       4.49213295
H        -0.42592836      -5.07495032       5.40285404
H        -0.14018067      -4.64388286       3.72839255
H        -0.54359214      -2.21049980       4.38253905
H        -0.69738006      -2.74878917       6.05388818
H         1.63555118      -3.70964712       5.87522319
H         1.77864976      -2.96702928       4.28758935
H         1.43105182      -1.58556384       6.97503107
H         2.82610549      -1.52649375       5.90770998
H         0.09085631      -0.26194001       5.43499873
H         1.60105085       0.55353880       5.79555423
H         1.03846536      -1.02226757       3.22214391
H         1.08950796       0.72549777       3.37681897
H         2.55841394      -0.23242262       3.63283203
