101
strain_lig_031 ligand at complex geometry  charge=0 uhf=0  from=59|CCCCCCCCCCCCN(CC)C(=O)COCC(=O)N(CC)CCCCCCCCCCCC|water
C        -4.39879770       2.56746535       7.86466405
C        -3.98647079       1.25767442       7.20788809
C        -2.47329173       1.16966541       7.02315657
C        -2.04095282      -0.19251950       6.48587834
C        -0.57543077      -0.25195311       6.04912573
C         0.42454687      -0.09423015       7.20334045
C         0.94814904       1.33386383       7.36863597
C         1.88077621       1.76524359       6.22839074
C         1.85744448       3.27991497       6.00127352
C         0.58355771       3.77914426       5.31476097
C         0.47892706       3.45774628       3.81788167
C        -0.96174911       3.70900143       3.36285426
N        -1.15211133       3.83714516       1.92145760
C        -1.23481102       5.19125110       1.38656857
C        -2.65061017       5.76357825       1.31518410
C        -1.24429252       2.75667905       1.15688516
O        -0.96962060       1.60201788       1.53220296
C        -1.76874525       2.93447857      -0.27489464
O        -1.90067398       1.65537469      -0.88610824
C        -3.25714879       1.19477860      -0.96290219
C        -3.28356229      -0.33466093      -0.84459695
O        -2.31421938      -0.87004143      -0.28082627
N        -4.35889939      -1.01236052      -1.24223688
C        -4.54943444      -2.37386376      -0.73303886
C        -4.70219563      -3.46981582      -1.77550809
C        -5.44267859      -0.42729470      -2.02897764
C        -5.04678982      -0.12914063      -3.48475864
C        -5.05898084      -1.33879311      -4.42202625
C        -4.67739548      -0.97505243      -5.86748849
C        -3.22202331      -1.28949760      -6.23418506
C        -2.16630690      -0.70078814      -5.29741768
C        -2.10455051       0.82684381      -5.27442271
C        -1.35602476       1.30086974      -4.02837278
C        -1.27532793       2.82049049      -3.85701873
C        -2.60028408       3.57578292      -3.97011794
C        -2.50726103       4.99102719      -3.38910351
C        -1.43236271       5.85152416      -4.04247048
H        -3.97273412       2.64527696       8.86092214
H        -5.47938175       2.62470953       7.95263710
H        -4.05631943       3.42041468       7.28380524
H        -4.47757944       1.16183883       6.23588503
H        -4.32108169       0.42435524       7.82695608
H        -1.99022236       1.35194743       7.98342151
H        -2.15067759       1.95131834       6.32676231
H        -2.67176574      -0.43878433       5.62480180
H        -2.21824673      -0.95252237       7.24971134
H        -0.40306699       0.51668515       5.29299268
H        -0.40727933      -1.21583546       5.56645798
H         1.27638538      -0.76258516       7.05351768
H        -0.05894387      -0.39843304       8.13173846
H         1.48317365       1.40934090       8.31700254
H         0.10075907       2.01544546       7.42547594
H         1.59435455       1.25419064       5.30591709
H         2.90165979       1.45609029       6.46922706
H         2.72809932       3.58478750       5.41898762
H         1.93687650       3.77168799       6.97186981
H         0.53174882       4.86190056       5.43697778
H        -0.27939009       3.35240586       5.82809449
H         0.74237820       2.41650513       3.62275024
H         1.15637106       4.09797391       3.24911974
H        -1.33111057       4.63746260       3.80361265
H        -1.59235055       2.88727669       3.70618463
H        -0.78086309       5.21359405       0.39419960
H        -0.62803603       5.82612656       2.03721788
H        -3.35103347       5.08732624       0.82991627
H        -2.62942066       6.68664908       0.74192402
H        -3.02805152       5.99229060       2.30682204
H        -1.06798392       3.53333534      -0.86851291
H        -2.72750749       3.45850838      -0.27593243
H        -3.70669293       1.58483897      -1.87971036
H        -3.82456294       1.55878851      -0.09795401
H        -5.45135990      -2.35306002      -0.11251760
H        -3.68697811      -2.59083987      -0.10100144
H        -5.60103648      -3.34239049      -2.37055192
H        -4.77934890      -4.42048866      -1.25350824
H        -3.83831719      -3.51520443      -2.42920154
H        -5.78632008       0.49446448      -1.54855946
H        -6.27687269      -1.13052861      -2.01295725
H        -4.05236336       0.30586081      -3.49462238
H        -5.74507550       0.61578368      -3.87176258
H        -6.06028657      -1.76911936      -4.41443172
H        -4.36615074      -2.09911708      -4.06351908
H        -4.89135744       0.07656151      -6.05977222
H        -5.30767103      -1.54437079      -6.55193483
H        -3.03973670      -0.93568841      -7.25069178
H        -3.09631853      -2.37632793      -6.23999302
H        -1.18877748      -1.08690425      -5.59558156
H        -2.35031186      -1.05827418      -4.28152207
H        -3.11448989       1.23374216      -5.27173458
H        -1.60809361       1.18829449      -6.17621252
H        -0.33752155       0.89790361      -4.04788361
H        -1.82916707       0.86151531      -3.14400256
H        -0.58880350       3.23940422      -4.58632099
H        -0.85356137       3.00962946      -2.86795187
H        -2.88595062       3.64715627      -5.02016035
H        -3.39487285       3.03511315      -3.44600599
H        -2.31372180       4.93523457      -2.31340220
H        -3.47227690       5.48193699      -3.51947547
H        -0.43290583       5.47680943      -3.82821003
H        -1.49498171       6.87122899      -3.67246048
H        -1.56882147       5.87543539      -5.11947613
