71
strain_lig_019 ligand at complex geometry  charge=0 uhf=0  from=66|CCCCC(CC)CN(C)C(=O)COCC(=O)N(C)CC(CC)CCCC|water
C         1.80315519       3.31297129      -1.15816162
C         1.37085643       4.71582787      -0.74432435
C        -0.11764355       4.76382301      -0.41044262
C        -1.01686016       4.55852128      -1.63268400
C        -2.49784230       4.83573002      -1.33458357
C        -3.34917385       4.89868643      -2.61264034
C        -2.97367551       6.04314448      -3.54805908
C        -3.11154541       3.83742960      -0.32719366
N        -3.45246757       2.51954741      -0.87452799
C        -4.80705964       2.23847263      -1.30975154
C        -2.53105778       1.57877692      -0.85489356
O        -1.35300503       1.79602516      -0.48740536
C        -2.93875361       0.15691942      -1.23208987
O        -1.87659784      -0.77898924      -0.98339985
C        -1.50232955      -1.56549852      -2.11212640
C        -0.43599982      -0.80924906      -2.91394552
O         0.06436210       0.19368822      -2.35296532
N        -0.07603838      -1.21474448      -4.11536635
C        -0.63066930      -2.40323535      -4.73974585
C         0.77012495      -0.31486147      -4.90815477
C         2.22233224      -0.14241384      -4.42093268
C         2.89918362       0.82517390      -5.40792727
C         4.02506452       1.66172964      -4.81107912
C         2.89816475      -1.52710422      -4.33664437
C         4.41752836      -1.56983779      -4.10661926
C         4.92421231      -1.07764208      -2.74885323
C         4.63619226      -2.05793695      -1.61338234
H         2.88661068       3.27128766      -1.24377897
H         1.37161441       3.05407268      -2.12179837
H         1.44757936       2.58491231      -0.39758249
H         1.59776424       5.42254143      -1.54213670
H         1.94146549       5.03050605       0.13126604
H        -0.34862799       5.73280665       0.03400257
H        -0.31647390       3.98757764       0.33651967
H        -0.88995406       3.55071476      -2.03600151
H        -0.69208749       5.26376905      -2.39652476
H        -2.54558905       5.81710528      -0.84672384
H        -4.39060027       5.03983274      -2.31890513
H        -3.27512314       3.95236360      -3.15600455
H        -2.97849270       6.99054006      -3.01682148
H        -3.70222871       6.10688949      -4.35060997
H        -1.99576919       5.89865129      -3.99866722
H        -4.02828002       4.26258033       0.08038692
H        -2.41053944       3.65893010       0.49435785
H        -5.40074004       3.14805598      -1.29006312
H        -5.27870491       1.51065820      -0.64317677
H        -4.83596956       1.85425372      -2.33235264
H        -3.25825330       0.12560898      -2.27609865
H        -3.78832364      -0.12388525      -0.60071898
H        -2.37619458      -1.81664198      -2.71991605
H        -1.08136223      -2.49686836      -1.71686224
H        -0.37749153      -3.30375653      -4.17554952
H        -0.21817307      -2.49945036      -5.74190961
H        -1.71885841      -2.34685741      -4.83148152
H         0.27941142       0.66357751      -4.90329439
H         0.78853953      -0.69156385      -5.92869709
H         2.18166583       0.34742146      -3.44370849
H         2.14126012       1.51538821      -5.78241446
H         3.26881867       0.26374143      -6.26364275
H         3.67551417       2.21965111      -3.94380217
H         4.36377262       2.37982843      -5.55112316
H         4.87975704       1.05811330      -4.52748376
H         2.72519816      -2.03050939      -5.29119799
H         2.39506961      -2.13011420      -3.57034510
H         4.90179337      -1.00359747      -4.90056751
H         4.74079858      -2.60692702      -4.21886338
H         4.52228283      -0.08463346      -2.53951191
H         6.00663921      -0.95964371      -2.81243795
H         3.57091039      -2.23378307      -1.46278855
H         5.06626333      -1.69715608      -0.68142613
H         5.10289655      -3.01333262      -1.83708137
