147
strain_lig_085 ligand at complex geometry  charge=0 uhf=0  from=63|CCCCCCCCN(CCCCCCCC)C(=O)COCC(=O)NCCCOCCCNC(=O)COCC(=O)N(CCCCCCCC)CCCCCCCC|nitrate
C         3.81655495      -2.66908530      -5.90287615
C         4.62016307      -2.22036652      -4.68985457
C         4.47189490      -3.16242786      -3.49475090
C         4.98413486      -2.52614345      -2.20063724
C         5.29271863      -3.53653436      -1.09760114
C         4.07939465      -4.31493274      -0.58447788
C         3.18237547      -3.54386594       0.39182329
C         1.94350320      -4.39698709       0.69854245
N         1.14360452      -3.91066896       1.82843191
C         0.98533386      -4.82226861       2.95495400
C         0.00988899      -5.98918974       2.68150734
C         0.64863641      -7.26896751       2.11235933
C         0.31163981      -7.60347566       0.65662544
C        -1.10243888      -8.15190141       0.44743818
C        -1.21782758      -8.90287893      -0.88157086
C        -2.61779934      -9.46658419      -1.15326255
C        -3.53786244      -8.47131161      -1.85289196
C         0.47389034      -2.77413046       1.68356715
O         0.40296040      -2.19234738       0.58218448
C        -0.19777511      -2.14328835       2.91849175
O        -0.57386342      -0.81550911       2.57232951
C        -0.85412621       0.03864041       3.67506856
C        -0.77219247       1.47152945       3.13212969
O        -0.48987335       1.60034487       1.93804765
N        -1.00214116       2.46641808       3.99595063
C        -1.01591033       3.90073375       3.65530537
C        -0.44815079       4.88424124       4.69236607
C        -0.44927466       6.35044459       4.19418892
O         0.84885358       6.76478685       3.79587584
C         0.89980268       8.03135957       3.15101296
C         2.24321617       8.33990537       2.45965988
C         2.46533126       7.91615501       0.98253889
N         3.13964308       6.72974276       0.33350081
C         3.55832844       5.41924297       0.20798425
O         3.56150669       5.04112057      -0.95863294
C         3.90587172       4.14598193       1.13856600
O         4.48372290       3.91394243       2.44667616
C         5.64786445       3.12186628       2.57247041
C         5.67384542       2.12345502       3.76224950
O         5.38847069       0.95609340       3.51895201
N         6.14143982       2.50670898       4.97258262
C         6.46114520       3.92265080       5.22676686
C         6.77148669       4.33828966       6.67674222
C         5.62990365       4.95593702       7.48625589
C         6.06899046       5.15867001       8.93694576
C         4.91207188       5.49960264       9.87291208
C         5.30868995       5.39679077      11.34851564
C         5.35997115       3.96290999      11.88397806
C         3.97319504       3.38030802      12.13605134
C         6.78799388       1.44686630       5.76509201
C         5.97477835       0.67914065       6.82047500
C         5.57759061       1.43220292       8.08742073
C         4.78717628       0.58856680       9.09915009
C         3.40517634       0.11395787       8.61031626
C         2.30795204       0.31312940       9.65974581
C         0.90034242      -0.09789169       9.21261949
C         0.71121092      -1.59531976       8.99827310
H         3.98426352      -1.99735061      -6.74035727
H         4.11036424      -3.66723777      -6.21059086
H         2.75162067      -2.68297650      -5.67958807
H         5.67228885      -2.16107266      -4.96360747
H         4.30727212      -1.21617679      -4.39892605
H         3.42207661      -3.44662164      -3.38693448
H         5.03170771      -4.07595336      -3.69239450
H         5.90053382      -1.97650855      -2.42430553
H         4.25947485      -1.80737433      -1.82682018
H         6.02020038      -4.25115788      -1.48379691
H         5.76174731      -3.01552312      -0.26194427
H         3.48895139      -4.65530284      -1.43586457
H         4.44790934      -5.20139975      -0.06580449
H         3.73805165      -3.34765954       1.31199852
H         2.87835186      -2.57735771      -0.01916980
H         1.31420809      -4.43471005      -0.19357551
H         2.25597489      -5.41016724       0.94471819
H         1.96842665      -5.22139226       3.21341750
H         0.62440335      -4.26042890       3.81450000
H        -0.46024053      -6.22536101       3.63603900
H        -0.78518083      -5.64377711       2.02325954
H         1.73298289      -7.21531677       2.22803485
H         0.32693616      -8.11394634       2.71760943
H         0.46573484      -6.73139271       0.02121820
H         1.01508282      -8.37095410       0.33204346
H        -1.33711160      -8.84637431       1.25534925
H        -1.83290886      -7.34207425       0.48511616
H        -0.93878787      -8.24575660      -1.70834101
H        -0.50119122      -9.72586861      -0.86439313
H        -2.52344285     -10.34714688      -1.79047923
H        -3.07585445      -9.78755888      -0.21541378
H        -3.13921498      -8.20602351      -2.83124308
H        -4.52332574      -8.90642734      -1.99978888
H        -3.65506729      -7.56358968      -1.26275940
H        -1.07595956      -2.73085386       3.21932630
H         0.52271938      -2.12168797       3.74422308
H        -1.86272247      -0.14298799       4.07061184
H        -0.12783172      -0.07656920       4.49098226
H        -1.28318673       2.23430910       4.94083837
H        -0.43903037       3.96599918       2.73650810
H        -2.06277006       4.17410264       3.50247268
H        -1.04254504       4.82653083       5.60481917
H         0.58504299       4.62796620       4.90498262
H        -1.14693312       6.48513631       3.35173905
H        -0.80213405       7.01306749       4.99345954
H         0.09828618       8.09912867       2.40513913
H         0.71706741       8.81619362       3.90200788
H         2.25385284       9.42920591       2.39398695
H         3.03511276       8.06112252       3.14092337
H         1.47487524       7.95049720       0.51888124
H         3.02424623       8.74143212       0.53343873
H         3.11361744       7.01974536      -0.64151205
H         2.91000723       3.76147301       1.25892323
H         4.46304886       3.54611786       0.43267340
H         5.78221325       2.46942459       1.69727290
H         6.52959927       3.76943078       2.67146700
H         7.34430620       4.18539495       4.62347911
H         5.60768440       4.49970568       4.85947099
H         7.16576720       3.49163749       7.23173330
H         7.57607010       5.07288185       6.63053072
H         5.33557021       5.91105151       7.05097825
H         4.75198169       4.31288981       7.46797652
H         6.53963261       4.24138566       9.28808631
H         6.82258478       5.94505731       8.99300570
H         4.56969123       6.51444159       9.66992124
H         4.07503452       4.82715693       9.68295663
H         6.28793468       5.85908729      11.47745548
H         4.60245332       5.96367712      11.95959129
H         5.90523057       3.31930620      11.18915386
H         5.91262561       3.96530682      12.82524134
H         3.36872160       3.39056211      11.23103572
H         4.04907895       2.35252601      12.48345024
H         3.45272450       3.95784114      12.89634220
H         7.12489935       0.69389768       5.04509973
H         7.67382069       1.88682306       6.21954624
H         5.09182944       0.25303303       6.34832189
H         6.60629874      -0.15861896       7.11877227
H         6.48419162       1.77642443       8.59086427
H         4.98149283       2.30728043       7.83673403
H         5.39363381      -0.26919613       9.39472907
H         4.65054373       1.20451838       9.99017282
H         3.13577585       0.66185461       7.70573751
H         3.44956339      -0.94590282       8.35952652
H         2.56240886      -0.25571812      10.55378097
H         2.28477852       1.36797169       9.94147232
H         0.20133722       0.22883817       9.98419908
H         0.62985870       0.42732265       8.29135807
H         0.95905236      -2.14444744       9.90134782
H        -0.32736658      -1.80905284       8.75128343
H         1.33639293      -1.96453684       8.18850469
