57
strain_lig_147 ligand at complex geometry  charge=0 uhf=0  from=58|CCN(C(=O)c1cccc(C(=O)N(CC)c2cccc(C)c2)n1)c1cccc(C)c1|nitrate
C        -5.11405727       1.45720711      -3.47977688
C        -4.23972541       2.65497900      -3.12616642
N        -2.85541137       2.29591416      -2.83053062
C        -2.42413097       1.56278795      -1.80489753
O        -1.21967998       1.24162672      -1.71036696
C        -3.29010139       1.10904877      -0.65240363
C        -4.35157279       1.79292367      -0.06495414
C        -4.82501707       1.35119190       1.16184601
C        -4.24172479       0.25313034       1.77083221
C        -3.21639879      -0.41036190       1.09547969
C        -2.32012576      -1.45798471       1.71563902
O        -1.09857024      -1.25244594       1.59217723
N        -2.81438314      -2.48073477       2.42090423
C        -4.18670335      -2.92513764       2.17700700
C        -4.27911966      -3.69142766       0.85892519
C        -1.99368044      -3.20129087       3.34807649
C        -0.92751104      -2.56591218       3.98897890
C        -0.27644310      -3.20275489       5.02862101
C        -0.63913243      -4.47516018       5.43250892
C        -1.65623348      -5.14775610       4.76942548
C        -2.07769843      -6.52052818       5.18036169
C        -2.31207939      -4.50163849       3.72475953
N        -2.75835745       0.02736191      -0.07274059
C        -1.87675691       2.82989445      -3.72847380
C        -0.77717090       3.51411263      -3.22505631
C         0.09513043       4.11999182      -4.10903677
C        -0.12634113       4.06212637      -5.47486297
C        -1.22595954       3.38604510      -5.98864157
C        -1.53280853       3.36576675      -7.44890114
C        -2.08561542       2.75601339      -5.09603126
H        -6.13851671       1.79576661      -3.61571649
H        -5.09767080       0.69740745      -2.70195158
H        -4.77821220       0.99819317      -4.40709903
H        -4.64916723       3.21951673      -2.28735232
H        -4.21416775       3.34020790      -3.97544395
H        -4.78721150       2.67389229      -0.50065234
H        -5.63541237       1.87075801       1.65143135
H        -4.54578769      -0.04157224       2.76111538
H        -4.85237217      -2.06256418       2.14161259
H        -4.50644173      -3.54662810       3.01276152
H        -3.98861459      -3.05456090       0.02360132
H        -5.30084046      -4.02830618       0.71015559
H        -3.62808348      -4.56261529       0.86655261
H        -0.60343642      -1.58083936       3.69389420
H         0.50844152      -2.67826765       5.55110659
H        -0.12317517      -4.94409670       6.25648402
H        -1.40116853      -6.92513010       5.92653364
H        -2.10454205      -7.19335551       4.32612449
H        -3.07858299      -6.48827041       5.60837033
H        -3.09300094      -5.05148551       3.22804878
H        -0.62916016       3.59252408      -2.15840735
H         0.93467942       4.68087365      -3.72824212
H         0.55353573       4.57167554      -6.14032969
H        -0.74502814       3.83584545      -8.02716154
H        -2.45872912       3.90663158      -7.63701307
H        -1.67598731       2.34917325      -7.80715287
H        -2.94373519       2.23363348      -5.48694616
