119
strain_lig_094 ligand at complex geometry  charge=0 uhf=0  from=66|CCCCCCCCN(CCCCCCCC)C(=O)[C@H](C)O[C@H](C)C(=O)N(CCCCCCCC)CCCCCCCC|nitrate
C         4.31430439      -1.93216243       4.39874856
C         4.87824703      -0.64982796       5.01767775
C         4.30676512      -0.35397715       6.41123327
C         3.03481640       0.50957639       6.43036558
C         3.25168856       2.01970740       6.23853916
C         3.30056541       2.56915791       4.80416158
C         1.96807026       3.08832476       4.24983069
C         2.24347622       3.49700771       2.79531229
N         1.08444982       3.92212755       2.01154549
C         0.77085572       5.33894694       2.18375314
C         1.57022737       6.32265221       1.29449617
C         2.90321747       6.89398649       1.82064306
C         4.17319528       6.01906245       1.84686737
C         4.25263064       4.96820954       0.74307995
C         5.31010784       3.88482495       0.96633894
C         6.75786958       4.37222332       0.84369880
C         7.39557238       4.72985338       2.17948164
C         0.47777295       3.05661929       1.20397830
O         0.91969943       1.90227307       0.99747803
C        -0.84285113       3.39579455       0.48397578
C        -0.53004208       3.90687405      -0.92118964
O        -1.51663705       2.13242647       0.44829867
C        -2.94465233       2.15964560       0.36352929
C        -3.49975376       2.43699996      -1.04481379
C        -3.37207005       0.74947410       0.80898695
O        -2.46773614      -0.11772476       0.86527068
N        -4.64429163       0.48615240       1.08034319
C        -5.02405677      -0.84847596       1.55622747
C        -4.60755919      -2.02343843       0.67511043
C        -5.50153554      -2.27139123      -0.54729053
C        -4.76967161      -2.10055644      -1.87610986
C        -5.61982017      -2.59861477      -3.04048794
C        -4.87615548      -2.48612398      -4.36677586
C        -5.67822300      -3.03553809      -5.54479025
C        -6.90893011      -2.19658921      -5.86740949
C        -5.69836880       1.48118338       1.25748868
C        -5.90077166       1.81621946       2.74430186
C        -4.65474697       2.50223806       3.29367189
C        -4.82982255       3.17761545       4.64816650
C        -3.54559901       3.89753446       5.06702961
C        -3.00321164       4.93707824       4.07729538
C        -3.94603985       6.10731479       3.76503394
C        -4.83181063       5.92109737       2.53374168
H         4.26120517      -1.87367874       3.31227094
H         4.94777947      -2.77635286       4.65005647
H         3.31359870      -2.14456763       4.76464794
H         5.96576385      -0.73753463       5.07982561
H         4.68261634       0.21195821       4.38175554
H         4.08525752      -1.30094958       6.91048884
H         5.06930440       0.14178858       7.00769369
H         2.31201531       0.11697979       5.71131341
H         2.57894327       0.39997406       7.41386318
H         2.45425436       2.54018422       6.77263451
H         4.19217626       2.28453066       6.72610732
H         4.00363472       3.40263723       4.78057875
H         3.68232118       1.81297557       4.11603830
H         1.18408880       2.33507904       4.31732024
H         1.64556437       3.95132113       4.83411928
H         2.91853266       4.34165773       2.84954023
H         2.72766050       2.67790435       2.26224086
H        -0.29372951       5.50544860       2.00482530
H         0.96080453       5.57163118       3.23385442
H         1.71105530       5.90898863       0.29516501
H         0.92198133       7.19358108       1.18116934
H         3.10546366       7.75070306       1.17644964
H         2.74243795       7.29158035       2.82536231
H         5.02908886       6.68597123       1.75006765
H         4.28367980       5.54132040       2.82134829
H         3.29107097       4.46453572       0.64051730
H         4.45964500       5.47361005      -0.19814557
H         5.16897638       3.42104421       1.94515764
H         5.13324761       3.11246406       0.21299168
H         7.35801007       3.58421434       0.38670934
H         6.80136382       5.23357072       0.17547260
H         7.41185592       3.86618795       2.83966482
H         8.41946349       5.05732836       2.02478536
H         6.85592080       5.52656695       2.67970263
H        -1.44234749       4.11332791       1.05525936
H        -0.10282963       3.07527701      -1.48371363
H        -1.42327706       4.26270841      -1.42789892
H         0.18372384       4.72456371      -0.88851070
H        -3.30273258       2.90445667       1.08261902
H        -2.76568181       2.13227825      -1.78647329
H        -4.40774038       1.86935766      -1.23310711
H        -3.73119864       3.49219012      -1.18315818
H        -4.58364110      -0.98265193       2.54520022
H        -6.10792372      -0.85194181       1.66464130
H        -3.57483025      -1.89336274       0.35179144
H        -4.63279959      -2.89659099       1.32536678
H        -5.87426843      -3.29526652      -0.50517840
H        -6.37362995      -1.61528321      -0.52777368
H        -4.51433521      -1.05130833      -2.04472230
H        -3.83581040      -2.66822351      -1.85342248
H        -5.89242355      -3.64279759      -2.86827813
H        -6.54124297      -2.01605273      -3.07972393
H        -4.62702771      -1.43902997      -4.54680912
H        -3.93352702      -3.03161428      -4.28804578
H        -5.03281178      -3.06615252      -6.42514555
H        -5.98670542      -4.05986947      -5.32470673
H        -6.62789568      -1.15685877      -6.01850349
H        -7.38420271      -2.55919049      -6.77450464
H        -7.63942999      -2.24258079      -5.06422313
H        -5.46312649       2.39696669       0.71696791
H        -6.62331759       1.07253634       0.84033355
H        -6.75929991       2.48452178       2.82363277
H        -6.12804383       0.91789760       3.31959932
H        -3.83333340       1.78056314       3.34843943
H        -4.38904040       3.28610908       2.58700187
H        -5.64809943       3.89505442       4.59217045
H        -5.08814533       2.44208127       5.41253480
H        -3.72709457       4.39659093       6.02034622
H        -2.76273133       3.14877240       5.22836390
H        -2.09464964       5.34256934       4.52765196
H        -2.69920556       4.45140952       3.14513811
H        -4.57670249       6.29992609       4.63309899
H        -3.33947077       6.99964730       3.59809738
H        -5.59939464       5.16736969       2.68689355
H        -5.33909013       6.85504855       2.30314466
H        -4.23893941       5.64560418       1.65952109
