65
strain_lig_010 ligand at complex geometry  charge=0 uhf=0  from=66|CC(C)CN(CC(C)C)C(=O)COCC(=O)N(CC(C)C)CC(C)C|nitrate
C         5.40852577       5.25283599      -1.08310364
C         4.45028621       4.84067047       0.03191836
C         5.10738756       3.92768694       1.06249590
C         3.14992310       4.20498916      -0.50006298
N         3.15469999       2.75538698      -0.64692424
C         3.80343767       2.24208738      -1.87224951
C         4.85746559       1.10170295      -1.89888414
C         4.29918700      -0.28496422      -1.58917818
C         6.13633917       1.31417420      -1.09469093
C         2.22197664       2.02085313      -0.05453713
O         1.98464041       0.86119101      -0.40878163
C         1.38459071       2.59732939       1.11020845
O         0.72320231       1.46120715       1.65541833
C        -0.23150606       1.71907832       2.67483779
C        -1.63860669       1.64712571       2.04541987
O        -1.69470804       1.26528996       0.85342814
N        -2.68978281       1.96826777       2.77333616
C        -2.57796485       2.57283409       4.09298458
C        -2.16853987       4.06158575       4.07857257
C        -2.04210172       4.52413235       5.52946847
C        -3.17625546       4.93087165       3.32799967
C        -4.03382845       1.82202501       2.21847168
C        -4.79898488       0.55635620       2.66971300
C        -5.04172633       0.46640231       4.17631393
C        -4.13180882      -0.71535171       2.15391180
H         6.24170950       5.80263663      -0.65745739
H         4.90289898       5.90835006      -1.78850776
H         5.81036294       4.40043990      -1.62086765
H         4.13623164       5.76169057       0.53208020
H         5.37716014       2.98312433       0.60872824
H         4.43136282       3.73087991       1.89279805
H         6.01024295       4.38793580       1.45117157
H         2.91079804       4.61313607      -1.48508408
H         2.34264020       4.48569541       0.17181847
H         4.27002650       3.11594384      -2.32614389
H         2.99450957       1.89348050      -2.52524016
H         5.15011098       1.10149131      -2.95938474
H         3.99952633      -0.36390342      -0.54835307
H         5.07039470      -1.02558225      -1.78827246
H         3.43639066      -0.50000074      -2.21339152
H         5.96408220       1.18719129      -0.02929286
H         6.57225644       2.28978438      -1.28339121
H         6.86333401       0.56545765      -1.40192774
H         0.65457189       3.32216453       0.70920365
H         2.03272548       3.05992238       1.86994858
H        -0.02040931       2.67530794       3.15871877
H        -0.14277586       0.89194875       3.39324845
H        -1.88888484       2.00287752       4.72148070
H        -3.55322932       2.50958507       4.56949428
H        -1.19444183       4.18022157       3.58667448
H        -2.99874754       4.43880704       6.03764167
H        -1.73118256       5.56352573       5.56912189
H        -1.31006503       3.92483445       6.06520899
H        -4.16275331       4.86455664       3.78053400
H        -3.24011316       4.65229147       2.27848590
H        -2.86045025       5.96941158       3.37670222
H        -3.93118852       1.79421064       1.13028406
H        -4.60739859       2.70801143       2.49542989
H        -5.77531398       0.64757016       2.18059563
H        -4.11667244       0.31045701       4.72641293
H        -5.68613328      -0.38435158       4.38185455
H        -5.55019705       1.35518880       4.54383689
H        -3.14245386      -0.84445224       2.59157495
H        -4.05414569      -0.67995142       1.06841638
H        -4.73002904      -1.58412440       2.41701874
