113
strain_lig_111 ligand at complex geometry  charge=0 uhf=0  from=66|CCCCCCN(CCC(C)CCCC(C)C)C(=O)COCC(=O)N(CCCCCC)CCC(C)CCCC(C)C|water
C        -3.27208087      -3.65068145       3.77067125
C        -3.83982662      -2.92381497       2.55463549
C        -4.29108361      -3.90832219       1.47317149
C        -5.19730023      -3.31078882       0.39554915
C        -4.55753615      -2.22853178      -0.47915779
C        -3.60606823      -2.81003018      -1.53159551
N        -3.07712882      -1.79074499      -2.44773844
C        -3.60471730      -1.74370759      -3.80372166
C        -3.29957108      -2.93088961      -4.73689797
C        -1.85153319      -3.42297166      -4.94407174
C        -1.41173698      -4.31281840      -3.78120169
C        -0.82142934      -2.31849317      -5.24565417
C         0.40837270      -2.84236830      -6.00179363
C         1.60657844      -1.89105439      -5.95250645
C         2.86394735      -2.47449983      -6.62485999
C         2.83056858      -2.26022195      -8.13472712
C         4.13200048      -1.85284449      -6.03567821
C        -2.26507699      -0.89309609      -1.92428907
O        -1.96644298      -0.93590794      -0.70295709
C        -1.69063342       0.26172382      -2.76183530
O        -0.47454877       0.75021664      -2.17332985
C        -0.32849243       2.17161184      -2.25493980
C        -0.78088921       2.75877095      -0.90391471
O        -0.84865604       1.93766275       0.04331717
N        -1.10206670       4.03221044      -0.79466041
C        -0.95134066       4.99320293      -1.88508986
C        -2.17417340       5.09527151      -2.80735598
C        -3.45727765       5.62658841      -2.16249764
C        -3.38333191       7.09884992      -1.75515910
C        -4.69312619       7.57421814      -1.12355928
C        -4.62339575       9.03617228      -0.70546464
C        -1.72040134       4.50099688       0.45074858
C        -0.82359314       4.35501354       1.69239831
C        -1.56519262       3.62615101       2.82657144
C        -0.55965026       3.05981833       3.82209116
C        -2.60099059       4.54182571       3.49112056
C        -3.48948521       3.91426343       4.57324984
C        -4.70652696       3.12299019       4.07899057
C        -4.46453354       1.76120876       3.41158574
C        -3.74062719       0.80244197       4.35968575
C        -5.79710465       1.14470549       2.98408275
H        -2.85229465      -2.94742803       4.48609447
H        -2.49006300      -4.33949592       3.46333597
H        -4.04554412      -4.21754650       4.28110980
H        -3.05592823      -2.27518214       2.13427379
H        -4.68478464      -2.30496346       2.86892441
H        -4.83994117      -4.71627905       1.95801230
H        -3.40438390      -4.35233054       1.01777451
H        -6.07152568      -2.87469637       0.87992754
H        -5.54711004      -4.12843261      -0.23597173
H        -4.02228621      -1.51556554       0.14946352
H        -5.35408617      -1.69199900      -0.99459586
H        -4.13492003      -3.54877163      -2.12951109
H        -2.75735673      -3.29526608      -1.04018059
H        -3.27638088      -0.81955553      -4.27192141
H        -4.69412581      -1.70076142      -3.71597120
H        -3.69651091      -2.62057682      -5.70561413
H        -3.88720342      -3.79884890      -4.43114675
H        -1.90106805      -4.06231715      -5.83234505
H        -1.33547398      -3.74788413      -2.85511248
H        -0.44964393      -4.75889783      -4.01106636
H        -2.12438834      -5.12213735      -3.63735257
H        -0.49251782      -1.86892254      -4.30210444
H        -1.30397228      -1.54183682      -5.84343775
H         0.13185043      -3.03636361      -7.03567001
H         0.71644652      -3.79610139      -5.57501325
H         1.84803325      -1.66823604      -4.90652696
H         1.36218473      -0.94092047      -6.43001196
H         2.89835727      -3.55319672      -6.43300306
H         2.83040359      -1.19863604      -8.36995814
H         1.94550839      -2.71313284      -8.57130043
H         3.70230166      -2.70910933      -8.60197926
H         4.13675801      -0.77489553      -6.18180310
H         5.01067028      -2.26244901      -6.52675183
H         4.21312832      -2.06049087      -4.96897822
H        -2.44910384       1.05194125      -2.76384156
H        -1.46258032      -0.03827962      -3.78983895
H        -0.91316930       2.56415474      -3.08971338
H         0.73428317       2.37792690      -2.43563665
H        -0.07327457       4.73121094      -2.47920020
H        -0.76056791       5.96838507      -1.44038052
H        -2.38413688       4.11117171      -3.23019009
H        -1.90203510       5.76312215      -3.62637571
H        -3.73340164       5.01523280      -1.30082437
H        -4.26298119       5.51969543      -2.89228019
H        -3.17033359       7.70257466      -2.63950469
H        -2.57192130       7.26648266      -1.04127202
H        -4.91647023       6.95581119      -0.24921644
H        -5.50288111       7.43774958      -1.84248112
H        -3.83304682       9.19287310       0.02383427
H        -5.56339854       9.34433454      -0.26063256
H        -4.42932406       9.66990699      -1.56490067
H        -2.63579571       3.91731133       0.60316318
H        -2.00245558       5.53894140       0.29601652
H        -0.48245037       5.33124292       2.03884038
H         0.06592358       3.77735368       1.42820080
H        -2.08329152       2.78257296       2.36044744
H         0.03477838       3.85412224       4.26120427
H         0.09495026       2.35527911       3.30890468
H        -1.06587940       2.53851186       4.62774391
H        -3.25012347       4.95722496       2.71769402
H        -2.06365597       5.37657778       3.94357218
H        -3.89698909       4.74469802       5.15053115
H        -2.89961951       3.31860416       5.26833887
H        -5.25745888       3.75169560       3.37652200
H        -5.35607207       2.95397803       4.94121659
H        -3.87481476       1.91576019       2.49683588
H        -4.28542631       0.75105750       5.29854384
H        -2.73051717       1.13919481       4.58398596
H        -3.70288697      -0.20853002       3.95476899
H        -6.41367559       0.93290047       3.85202864
H        -5.63492757       0.21404405       2.44272182
H        -6.34702895       1.81918732       2.33438951
