70
strain_lig_106 ligand at complex geometry  charge=0 uhf=0  from=66|CCCCCCCCP(=O)(CC(=O)N(CC(C)C)CC(C)C)c1ccccc1|nitrate
C         3.84560570       5.11591263      -5.01598374
C         2.43854768       4.84116137      -5.53467963
C         2.01024940       3.37143733      -5.48413416
C         2.80143062       2.43833823      -6.40337910
C         4.15414008       1.93343392      -5.90173647
C         4.13203276       0.88061985      -4.78658128
C         4.10370788       1.43137723      -3.36286929
C         4.48493380       0.39701751      -2.30119694
P         3.09851380      -0.75601431      -2.00276298
O         1.82571476       0.02806626      -1.85843095
C         3.40726737      -1.65979333      -0.43360281
C         3.56777454      -0.64937617       0.67447846
O         2.66843978       0.20896345       0.78000759
N         4.60597776      -0.74907009       1.50534685
C         5.80877969      -1.53372172       1.27119794
C         6.93794693      -0.69596820       0.62991459
C         7.55547335       0.29484518       1.61591644
C         8.03158482      -1.61514483       0.08609291
C         4.68606182       0.06238419       2.71335179
C         3.40651505       0.11106856       3.54140367
C         3.78380958       0.73747945       4.88036314
C         2.80247381      -1.27520606       3.69633681
C         3.24781364      -2.20384242      -3.13174156
C         4.23540172      -2.29335899      -4.10254082
C         4.39736030      -3.43163057      -4.87559418
C         3.57699621      -4.52894137      -4.67242025
C         2.62399169      -4.47958749      -3.66967011
C         2.46705606      -3.33538595      -2.90077583
H         3.96881894       6.17741687      -4.81887028
H         4.59557991       4.82811151      -5.74592135
H         4.02677222       4.57073565      -4.09159010
H         2.35712987       5.19362221      -6.56420502
H         1.72503149       5.42222107      -4.94179011
H         0.96596226       3.33617978      -5.80825280
H         2.04864378       3.00504510      -4.45595781
H         2.96469036       2.96346794      -7.34595582
H         2.18604524       1.56385729      -6.62958096
H         4.78197145       2.75895285      -5.57980815
H         4.64313320       1.48071185      -6.76686566
H         5.06425616       0.32976011      -4.89868276
H         3.30609245       0.18023821      -4.94275713
H         3.10284696       1.78342631      -3.11789681
H         4.77912147       2.28804455      -3.30915165
H         4.64650642       0.91996020      -1.35686802
H         5.39816051      -0.13916889      -2.54853367
H         4.22094513      -2.35801137      -0.57460827
H         2.49023579      -2.22123779      -0.20969025
H         5.60890691      -2.39818137       0.64219222
H         6.16126925      -1.91502218       2.23241126
H         6.50222086      -0.14366513      -0.20951676
H         7.82992755      -0.21193896       2.53754478
H         6.87833588       1.10568762       1.85716190
H         8.44760037       0.74256520       1.18838210
H         8.47593111      -2.18467047       0.89710937
H         8.81662557      -1.02611109      -0.38561561
H         7.63324835      -2.31492691      -0.64573920
H         4.96608619       1.08427605       2.45956755
H         5.46762616      -0.38622324       3.33211319
H         2.67037913       0.74931080       3.04410016
H         4.50625647       0.12038654       5.40677562
H         2.91948488       0.85966934       5.52288783
H         4.22111607       1.71876253       4.71862368
H         1.93821215      -1.20591268       4.33803306
H         3.51602375      -1.96637154       4.13575942
H         2.45724565      -1.65469703       2.73370036
H         4.91222074      -1.47799554      -4.26619866
H         5.17945432      -3.47043273      -5.61990843
H         3.69109674      -5.41985583      -5.27226769
H         1.99771231      -5.34110545      -3.48002437
H         1.72453617      -3.32024732      -2.11254143
