108
strain_lig_053 ligand at complex geometry  charge=0 uhf=0  from=63|CCCCCCCCN(C)C(=O)COCC(=O)N(C)Cc1cccc(CN(C)C(=O)COCC(=O)N(C)CCCCCCCC)c1|nitrate
C        -8.34852492       6.07040620      -1.48127858
C        -7.40643849       4.89819792      -1.71624903
C        -6.79372480       4.92839424      -3.11385369
C        -5.76269327       3.81681113      -3.29277464
C        -5.06444820       3.87228216      -4.65157283
C        -3.95417665       2.82265183      -4.83266759
C        -2.72452909       3.15426538      -3.98432975
C        -1.54334973       2.22175883      -4.25779830
N        -0.35417205       2.70587319      -3.56026397
C         0.34856734       3.74814850      -4.27406073
C         0.03428258       2.21210973      -2.39676669
O        -0.38404476       1.13584445      -1.92241942
C         1.06464620       3.02248308      -1.58505876
O         1.06481187       2.57340862      -0.23592680
C         0.73084820       3.55608598       0.73951664
C        -0.30691393       2.99399536       1.72020263
O        -0.70250811       1.82823345       1.55291869
N        -0.73971125       3.78577385       2.69592159
C        -1.77101272       3.26683018       3.58689709
C        -0.14053579       5.04445794       3.13141092
C        -0.76181722       6.37006512       2.73155337
C        -0.79340465       7.37658008       3.68964708
C        -1.18057074       8.65887560       3.34930455
C        -1.54687094       8.95321928       2.05093773
C        -1.56966676       7.95439959       1.08950680
C        -2.05205294       8.26850805      -0.31268811
N        -2.91484466       7.19925926      -0.77143976
C        -4.18438916       7.11364656      -0.07613598
C        -2.44684577       6.12454781      -1.42227695
O        -2.91328814       4.99573511      -1.31147315
C        -1.26865043       6.33336162      -2.38955563
O        -1.34019702       7.55309997      -3.09490726
C        -0.62561799       7.62370497      -4.31348850
C        -1.20189467       6.69980645      -5.39721911
O        -2.17882426       6.01050152      -5.14999539
N        -0.59184821       6.65517179      -6.59677107
C         0.65728196       7.29170358      -6.94320445
C        -1.19101398       5.81646478      -7.62875963
C        -0.44906282       4.48322289      -7.80602368
C        -1.37848085       3.32302991      -8.17872082
C        -0.67694823       1.96718679      -8.02408787
C        -1.65646631       0.79720667      -7.90555200
C        -0.95455821      -0.47772693      -7.44261849
C        -1.93158100      -1.61762829      -7.17366022
C        -1.22797344      -2.85918567      -6.63987650
C        -1.16482738       6.66963594       1.44047292
H        -8.74127531       6.05192762      -0.46766946
H        -9.18703026       6.03145876      -2.17133414
H        -7.83078425       7.01497851      -1.63065422
H        -7.95541644       3.96477152      -1.57506020
H        -6.60778090       4.92003941      -0.96979199
H        -6.30866365       5.89207855      -3.27488040
H        -7.58390081       4.82391861      -3.85862272
H        -6.26970519       2.85210114      -3.19004028
H        -5.01623158       3.90586633      -2.50196714
H        -4.62462913       4.86347671      -4.78505144
H        -5.80929424       3.72928557      -5.43927012
H        -3.65763953       2.83522089      -5.88637216
H        -4.33544625       1.81950846      -4.60815720
H        -2.96833733       3.12732677      -2.92170956
H        -2.44991457       4.17616897      -4.24562950
H        -1.32340405       2.19016786      -5.32401572
H        -1.75370675       1.21098238      -3.91508303
H        -0.37284249       4.45557785      -4.67772017
H         0.90611012       3.29343406      -5.09906032
H         1.04955059       4.30135203      -3.66015335
H         0.79847554       4.08214459      -1.62657124
H         2.07515657       2.89344220      -1.99921576
H         0.31243965       4.43946851       0.25405550
H         1.64578891       3.82593281       1.27838607
H        -2.13779828       2.32749734       3.17284951
H        -2.59520255       3.97956797       3.67178404
H        -1.35106643       3.08279656       4.58030595
H         0.91258161       5.08838448       2.83559811
H        -0.16400983       5.01534353       4.22252111
H        -0.51453282       7.16545753       4.70610871
H        -1.19830916       9.42687240       4.10310576
H        -1.83539807       9.95665398       1.78516917
H        -1.22165253       8.40518291      -1.00773829
H        -2.61426416       9.20528871      -0.30239281
H        -4.06154972       6.84136106       0.97554577
H        -4.80981984       6.36637284      -0.55992108
H        -4.67373414       8.08614257      -0.12433617
H        -1.34190732       5.49459941      -3.08009968
H        -0.30936009       6.26299066      -1.83913646
H         0.44443135       7.41324979      -4.15526594
H        -0.73732227       8.66427705      -4.63559983
H         0.92637148       8.08005129      -6.24649013
H         0.57445127       7.72860499      -7.93811391
H         1.46576839       6.55342527      -6.96741875
H        -1.20882222       6.37239040      -8.56584922
H        -2.22035769       5.62571635      -7.31931820
H         0.03849726       4.23991925      -6.86019185
H         0.32750191       4.57905573      -8.56584819
H        -1.72658817       3.43978418      -9.20605786
H        -2.25902395       3.34145616      -7.52931487
H        -0.04968236       1.98531418      -7.12395895
H        -0.00765407       1.79730863      -8.86871166
H        -2.13627981       0.62684143      -8.86852312
H        -2.44420193       1.05129435      -7.19008610
H        -0.39294192      -0.26497506      -6.52638207
H        -0.23574367      -0.78899110      -8.20052845
H        -2.45130916      -1.87356790      -8.09556363
H        -2.68588579      -1.29013694      -6.45393835
H        -0.49560562      -3.21799593      -7.35762367
H        -1.94351207      -3.65729429      -6.45950010
H        -0.70896484      -2.64565943      -5.70484648
H        -1.20413873       5.87683383       0.70879045
