95
strain_lig_007 ligand at complex geometry  charge=0 uhf=0  from=66|CC(C)CCCC(C)CCCCN(C)C(=O)COCC(=O)N(C)CCCCC(C)CCCC(C)C|water
C         5.79717419      -0.76763857      -1.74362195
C         5.11989015      -1.85541350      -2.58482568
C         5.50454729      -3.22320233      -2.02240715
C         3.59935442      -1.63755471      -2.65011813
C         2.88953709      -2.42630695      -3.76218544
C         2.36316921      -3.81638246      -3.39739401
C         1.12295372      -3.80970214      -2.48804514
C         1.48698164      -4.15321621      -1.04240031
C         0.06209599      -4.80822031      -2.96916451
C        -0.67415519      -4.44497548      -4.26208802
C        -1.38516874      -3.08826877      -4.33253006
C        -2.69203829      -2.94527303      -3.53166215
N        -2.47568529      -2.77113276      -2.10241875
C        -2.78048702      -3.90226286      -1.23992959
C        -1.98894068      -1.66387438      -1.57428136
O        -1.49879380      -1.63412767      -0.42209115
C        -2.07451641      -0.32663373      -2.33305246
O        -1.84868358       0.64676601      -1.31843802
C        -1.84847253       2.01677189      -1.69653575
C        -1.70610606       2.78240998      -0.37693406
O        -1.70919304       2.10374585       0.67900266
N        -1.62800116       4.09847100      -0.35502935
C        -1.61899360       4.97050324      -1.50966009
C        -1.64674944       4.74186266       0.96103528
C        -3.06468759       4.71061690       1.54205191
C        -3.10667877       4.88311275       3.06152178
C        -2.50970892       3.71043013       3.85121107
C        -3.45574325       2.59355349       4.32775134
C        -4.51773302       3.10414602       5.29482792
C        -4.03231419       1.72265226       3.19266705
C        -5.35966086       2.15305083       2.56502260
C        -5.84668281       1.18419283       1.47718468
C        -5.11416493       1.23735088       0.12413689
C        -5.47632815       2.50662542      -0.64671132
C        -5.51030670       0.01958376      -0.71513152
H         6.87347840      -0.83991452      -1.84504041
H         5.50828798       0.22809259      -2.07381759
H         5.56062922      -0.89168559      -0.68732940
H         5.50893008      -1.78123087      -3.60295417
H         5.02714015      -3.39539771      -1.05671885
H         5.23248585      -4.02402192      -2.70436222
H         6.58361989      -3.26979226      -1.88420152
H         3.17091418      -1.87949199      -1.67208163
H         3.43521950      -0.57224063      -2.84769887
H         2.04476831      -1.83782153      -4.13665789
H         3.58334153      -2.53635792      -4.59586492
H         2.11519285      -4.32246678      -4.32987379
H         3.14774846      -4.40380699      -2.92630685
H         0.67924236      -2.80574317      -2.48144609
H         1.70407396      -5.21348667      -0.95043593
H         2.37438784      -3.60848483      -0.73438410
H         0.66702907      -3.90439682      -0.36874832
H         0.55100092      -5.76802424      -3.14208537
H        -0.64675715      -4.96572580      -2.16077136
H         0.04760318      -4.45276447      -5.08035829
H        -1.40044433      -5.23024261      -4.47588146
H        -0.69249335      -2.29313535      -4.05377648
H        -1.65663647      -2.92971638      -5.37764381
H        -3.25008857      -2.09380435      -3.92565686
H        -3.30369967      -3.83572045      -3.66507854
H        -2.54955229      -4.83398932      -1.74626540
H        -2.21090205      -3.84252465      -0.31443624
H        -3.84794198      -3.88993454      -1.00355972
H        -1.31976240      -0.26257921      -3.12528333
H        -3.05957570      -0.19395159      -2.79237965
H        -1.01766045       2.22915925      -2.37980950
H        -2.79270902       2.30483956      -2.17972138
H        -1.44461548       4.41643985      -2.42686540
H        -2.56763538       5.50371607      -1.58743330
H        -0.82739568       5.71172253      -1.38737692
H        -0.97033670       4.18069812       1.61095801
H        -1.28999562       5.76500465       0.86200969
H        -3.66194910       5.49325443       1.07225831
H        -3.50140540       3.74884283       1.28847441
H        -2.56935295       5.79712655       3.31449234
H        -4.14504998       5.03501086       3.35092499
H        -1.71390341       3.23757142       3.26460719
H        -2.04528322       4.12065572       4.74892923
H        -2.80531025       1.92063132       4.90319873
H        -5.16565135       3.84578450       4.84000408
H        -5.13137727       2.28083730       5.64965929
H        -4.03589796       3.55854092       6.15567373
H        -3.25098213       1.65697605       2.42350966
H        -4.20547770       0.73075815       3.63068768
H        -6.11610764       2.16696138       3.34852831
H        -5.30100011       3.15967498       2.16015786
H        -5.80126408       0.16251748       1.87024550
H        -6.89936687       1.40122604       1.28745327
H        -4.02441745       1.21007199       0.28949394
H        -6.54261392       2.52417911      -0.85111114
H        -5.22675647       3.40347788      -0.08910213
H        -4.95799790       2.54520406      -1.60297397
H        -6.59243648      -0.03183613      -0.79626190
H        -5.10779754       0.09858037      -1.72226917
H        -5.15471278      -0.90834609      -0.27152357
