55
strain_lig_109 ligand at complex geometry  charge=0 uhf=0  from=66|CCCCCCN(C)C(=O)CC(=O)N(C)CCCCCC|nitrate
C         0.52319763      -3.05014828       7.90422054
C         0.92832314      -3.90781992       6.71368820
C         0.02642628      -3.69861206       5.49541519
C        -1.37152204      -4.26772617       5.72176013
C        -2.27018269      -4.21695196       4.48666395
C        -2.96688407      -2.86719167       4.24718299
N        -2.21274304      -1.78391549       3.61506943
C        -1.91293654      -0.64624720       4.47265632
C        -1.92978586      -1.69951504       2.31489636
O        -1.45284832      -0.66741237       1.80338802
C        -2.19549797      -2.95222400       1.48239139
C        -2.20281205      -2.76211262      -0.02406762
O        -1.70227922      -1.75760778      -0.57346288
N        -2.76697620      -3.73195289      -0.74550492
C        -3.36853223      -4.95488711      -0.24335391
C        -2.89040880      -3.55662382      -2.18886855
C        -1.60600964      -3.86908773      -2.96829029
C        -1.09536837      -5.30754056      -2.86125082
C        -0.02459535      -5.57909374      -3.91914679
C         0.64991109      -6.94105825      -3.76361599
C         1.63523954      -6.98560647      -2.60222772
H         1.23736045      -3.16890208       8.71283445
H        -0.45494176      -3.33288290       8.27988665
H         0.49475523      -1.99804238       7.62785644
H         0.90553753      -4.96034421       6.99734840
H         1.95640952      -3.66936331       6.43982326
H         0.46682774      -4.20827784       4.63336495
H        -0.01981027      -2.63347254       5.25731448
H        -1.86826780      -3.75883653       6.54739009
H        -1.25823427      -5.31331195       6.01244144
H        -3.07459886      -4.93963184       4.63249490
H        -1.69903088      -4.54287638       3.61945276
H        -3.29157144      -2.49454320       5.22030799
H        -3.87756014      -3.04003387       3.66383333
H        -1.44236629      -0.99935781       5.39015863
H        -2.82341557      -0.10325187       4.73913522
H        -1.23857856       0.02258901       3.94022371
H        -3.14855916      -3.38129626       1.78662791
H        -1.38884831      -3.65609459       1.70963023
H        -3.08171998      -5.18586452       0.77607665
H        -3.05129458      -5.77988390      -0.87619012
H        -4.45737455      -4.89601179      -0.30753912
H        -3.17081476      -2.51351084      -2.37299357
H        -3.69815903      -4.20123633      -2.53790434
H        -0.81603198      -3.19539290      -2.62861501
H        -1.82247561      -3.65319139      -4.01812256
H        -1.91326772      -6.01197493      -3.01521204
H        -0.68064880      -5.47246262      -1.86696149
H         0.74100580      -4.80109823      -3.87756492
H        -0.49867581      -5.53380382      -4.90043847
H         1.19144045      -7.16917306      -4.68141853
H        -0.10853634      -7.71199776      -3.63463288
H         2.40996074      -6.23294164      -2.74028935
H         2.11402342      -7.96010930      -2.55117451
H         1.14113230      -6.80350843      -1.64971984
