80
strain_lig_011 ligand at complex geometry  charge=0 uhf=0  from=63|CC1(C)CCC(C)(C)c2nc(-c3ccc4ccc5ccc(-c6nnc7c(n6)C(C)(C)CCC7(C)C)nc5c4n3)nnc21|nitrate
C         4.46817080       2.25568355      -2.39434883
C         3.73508323       1.89408294      -3.68999026
C         2.78995002       3.04566167      -4.07017561
C         4.72090779       1.55627383      -4.81078081
C         4.04772084       0.84780012      -5.98015840
C         3.40483842      -0.48898717      -5.58023432
C         4.46806691      -1.57105586      -5.30813434
C         2.47872717      -1.00471651      -6.68832797
C         2.64043332      -0.35303594      -4.30463331
N         1.79416871      -1.31921920      -3.98038808
C         1.16025440      -1.19764839      -2.82375871
C         0.22393937      -2.21967622      -2.33600451
C        -0.03021589      -3.41290992      -3.02785560
C        -0.89758286      -4.32203907      -2.46946572
C        -1.52451990      -4.02301904      -1.24702334
C        -2.46628698      -4.88589384      -0.61219734
C        -3.06001165      -4.54390087       0.55928302
C        -2.76682220      -3.30640125       1.20477882
C        -3.36002807      -2.89897275       2.41336277
C        -3.02053954      -1.68571635       2.96232689
C        -2.09473467      -0.87988281       2.28247953
C        -1.70216592       0.45580496       2.75235968
N        -0.85767894       1.09218502       1.93124702
N        -0.41434495       2.27676169       2.25637037
C        -0.83494633       2.85395131       3.37105360
C        -1.79912395       2.20467929       4.17855631
N        -2.19215317       0.97778151       3.86594057
C        -2.41386519       2.84857823       5.37866720
C        -1.88088693       2.11274646       6.62149752
C        -3.93270862       2.63463290       5.31481631
C        -2.08132927       4.34795579       5.41092716
C        -0.61949290       4.63246426       5.08877214
C        -0.25015131       4.20001002       3.66740815
C         1.26882409       4.07742075       3.49736910
C        -0.80154283       5.15852445       2.60048478
N        -1.51826702      -1.24153029       1.14186239
C        -1.83384835      -2.42401198       0.60853883
C        -1.20342927      -2.78714315      -0.63492120
N        -0.34021373      -1.92028127      -1.17044835
N         1.31333441      -0.16610943      -1.98359008
N         2.14353324       0.79412095      -2.28822252
C         2.83117665       0.73459316      -3.41724056
H         5.11106881       3.11481890      -2.55426465
H         5.08258597       1.42433248      -2.05717067
H         3.75014217       2.49457826      -1.61360523
H         3.35997340       3.94941838      -4.25199474
H         2.09850400       3.22946581      -3.25023330
H         2.21948710       2.81469043      -4.96608011
H         5.51449467       0.92530294      -4.41274752
H         5.18216454       2.47927804      -5.15716309
H         4.78098610       0.65452318      -6.76462907
H         3.28290283       1.50374395      -6.39981996
H         5.04645598      -1.73577493      -6.21256622
H         3.98094622      -2.50281990      -5.02692477
H         5.14633991      -1.28220506      -4.50903431
H         3.04729891      -1.11795670      -7.60713717
H         1.65678293      -0.31646656      -6.87172278
H         2.06021460      -1.96886650      -6.41178449
H         0.44572668      -3.58654257      -3.97864602
H        -1.11169729      -5.25678732      -2.96133719
H        -2.70024484      -5.82260556      -1.09609192
H        -3.76443188      -5.20898609       1.03675165
H        -4.08230146      -3.53964267       2.89310339
H        -3.44739135      -1.33826937       3.88883483
H        -2.14443555       1.05815660       6.57028792
H        -2.33403380       2.54274688       7.51037478
H        -0.80067164       2.19437494       6.71351522
H        -4.16462318       1.57254891       5.29953528
H        -4.35364580       3.08924584       4.42050971
H        -4.39685725       3.08749817       6.18606035
H        -2.32682751       4.73504994       6.40058850
H        -2.71178435       4.86782650       4.68703048
H         0.01523724       4.10358459       5.79889126
H        -0.41810147       5.69641470       5.19540041
H         1.67273210       3.37356472       4.22177438
H         1.74579814       5.03979977       3.64788388
H         1.50393693       3.71962783       2.49678879
H        -1.88467718       5.23449084       2.64764535
H        -0.51740180       4.80645478       1.61128904
H        -0.38877087       6.15080132       2.74225756
