69
strain_lig_006 ligand at complex geometry  charge=0 uhf=0  from=63|CC(C)(C)c1ccc(NCC(=O)c2cccc(C(=O)CNc3ccc(C(C)(C)C)cc3)n2)cc1|nitrate
C         1.74969959       2.48999727       7.15094974
C         2.97402727       2.76759727       6.26488300
C         4.22428441       2.31970424       7.02979702
C         3.08890969       4.27182069       5.97745886
C         2.81553371       2.04651031       4.93450694
C         3.79456614       1.20866904       4.41079767
C         3.60388693       0.51192234       3.22858636
C         2.41943161       0.65175087       2.52006248
N         2.09891462      -0.14669643       1.34018435
C         3.26824947      -0.44664298       0.47444011
C         2.62941767      -1.10809585      -0.73331425
O         1.97209108      -2.11166222      -0.61176722
C         2.46911360      -0.23131539      -1.95383252
C         3.26846290       0.01947797      -3.05724976
C         2.78366630       0.89815068      -4.02123268
C         1.54130768       1.50435623      -3.87081554
C         0.81834426       1.20560878      -2.73161098
C        -0.48599922       1.71121378      -2.16442004
O        -1.39715339       0.92893633      -1.96925920
C        -0.36348914       2.99064873      -1.39337815
N         0.44777768       2.64416984      -0.19184222
C         1.14439058       3.79255248       0.29875218
C         0.49222795       5.01065008       0.43011126
C         1.22513863       6.16547772       0.63094360
C         2.61579944       6.14528060       0.70140892
C         3.46059626       7.39316017       0.51287452
C         4.58029225       7.47721630       1.55566186
C         2.61932937       8.67088704       0.57290380
C         4.05399365       7.26315764      -0.90505769
C         3.22632684       4.89053724       0.76743776
C         2.50870952       3.73235032       0.55052784
N         1.28501642       0.36541374      -1.79481420
C         1.46386541       1.54860543       2.97673202
C         1.66106824       2.21879571       4.16961513
H         1.87539979       2.97873144       8.11372974
H         1.63463646       1.42178677       7.32390950
H         0.83424907       2.86559925       6.70429320
H         4.26285775       2.83734195       7.98527468
H         5.13328850       2.56385355       6.48490899
H         4.20326913       1.25031210       7.22861430
H         3.19121953       4.82069176       6.90987059
H         2.20979976       4.63691882       5.45378920
H         3.96250021       4.46810289       5.35861740
H         4.72398510       1.05406273       4.93008221
H         4.37798219      -0.15655857       2.88016902
H         1.78183957      -1.05794565       1.70841316
H         3.97038855      -1.14074172       0.95341811
H         3.79024640       0.48197599       0.22828014
H         4.22711404      -0.45712470      -3.17121653
H         3.38081571       1.11952069      -4.89016375
H         1.15901737       2.16847348      -4.63021363
H        -1.35349067       3.31968991      -1.06709297
H         0.13972907       3.77804712      -1.96666748
H         1.19356268       1.98111590      -0.43727727
H        -0.57839324       5.05714254       0.31748971
H         0.68401555       7.09427148       0.66561832
H         4.15992991       7.46442896       2.55867152
H         5.13753826       8.40071646       1.42367627
H         5.27651411       6.64904704       1.45981400
H         2.10426512       8.75234812       1.52752821
H         1.88848763       8.69218418      -0.23300711
H         3.26273609       9.53921959       0.45725258
H         4.67692071       6.37481585      -0.98919989
H         4.65719675       8.13423083      -1.14554525
H         3.25392095       7.18643321      -1.64119139
H         4.28904654       4.79636172       0.91442151
H         3.01104713       2.77201793       0.53452867
H         0.55868199       1.71294799       2.39815904
H         0.87924035       2.87487554       4.51069238
