58
strain_lig_167 ligand at complex geometry  charge=0 uhf=0  from=63|O=C(c1cc(Cl)c2ccc3c(Cl)cc(C(=O)N4CCc5ccccc54)nc3c2n1)N1CCc2ccccc21|nitrate
O        -0.16609421       1.93756126      -1.28191786
C         0.30961133       3.03636389      -0.90379137
C         0.69954968       3.11789383       0.56363828
C         0.99963041       4.24448708       1.34222339
C         1.19394704       4.09590137       2.70938293
Cl        1.56212445       5.45371613       3.67815535
C         1.02188254       2.82796700       3.31548963
C         1.12397509       2.61719659       4.71809004
C         0.92105408       1.38688988       5.25352904
C         0.54687165       0.28216695       4.44075597
C         0.26631959      -1.01021146       4.94955331
Cl        0.38951543      -1.29244682       6.62819536
C        -0.07095842      -2.04795362       4.08792482
C        -0.18019232      -1.78337916       2.71209690
C        -0.35738826      -2.73854194       1.54077498
O        -0.26227097      -2.22860206       0.39863114
N        -0.55093810      -4.05293749       1.64514492
C        -0.53984303      -4.85722326       2.86553080
C        -0.69990517      -6.31644358       2.43008188
C        -0.80634614      -6.22600657       0.94744182
C        -0.97426823      -7.25613257       0.05087562
C        -1.05639182      -6.95352077      -1.30026140
C        -0.97763458      -5.63579198      -1.72640096
C        -0.80886749      -4.59211231      -0.82955785
C        -0.71681674      -4.90075655       0.52305409
N        -0.01942820      -0.54118157       2.25333256
C         0.39739757       0.45507719       3.04651614
C         0.69717258       1.75222129       2.45768371
N         0.60108984       1.90886410       1.12726351
N         0.42129903       4.04498102      -1.77109022
C         0.88351469       5.40309592      -1.47232908
C         0.96206469       6.14990508      -2.80365847
C         0.38370953       5.18371320      -3.77087757
C         0.14888170       5.39724774      -5.11019315
C        -0.41221746       4.37226162      -5.85152239
C        -0.74320629       3.17342582      -5.23899652
C        -0.51890483       2.95903847      -3.88488667
C         0.06495577       3.97782140      -3.14560934
H         1.06416116       5.24357367       0.95311362
H         1.37452329       3.46291336       5.34292409
H         1.02658632       1.21944615       6.31484614
H        -0.23857313      -3.01572973       4.52251924
H        -1.35589012      -4.55504177       3.51875358
H         0.40459888      -4.71347080       3.38686927
H        -1.59256583      -6.77752963       2.84771608
H         0.15481207      -6.92940907       2.71061328
H        -1.03951317      -8.27329271       0.40596295
H        -1.18266670      -7.74699606      -2.01895980
H        -1.04679891      -5.41715328      -2.78135532
H        -0.75149359      -3.58091098      -1.19597768
H         1.85067999       5.38175835      -0.97726308
H         0.15481781       5.88612659      -0.82230055
H         1.98178288       6.41405510      -3.07616674
H         0.37832847       7.06672196      -2.79024632
H         0.39424920       6.35025610      -5.55218386
H        -0.59939095       4.51760038      -6.90307112
H        -1.19743316       2.39117760      -5.82758234
H        -0.81130171       2.02898033      -3.43212930
