94
strain_lig_104 ligand at complex geometry  charge=0 uhf=0  from=63|CCCCCCCCOc1cc(C(=O)N(C)c2ccc(C(C)(C)C)cc2)nc(C(=O)N(C)c2ccc(C(C)(C)C)cc2)c1|nitrate
C         2.48012088       3.55542482       5.21374188
C         1.28581432       4.03225944       6.03231691
C         0.56610802       2.90825980       6.78200982
C         1.41239690       2.28943129       7.89484352
C         0.60314671       1.54025570       8.95617637
C        -0.00565696       0.21755307       8.47732315
C        -1.44698914       0.32811885       7.97510692
C        -1.89217401      -0.99006462       7.33104243
O        -0.93336042      -1.50716524       6.40859013
C        -0.65422656      -0.90196529       5.26642098
C         0.44145817      -1.39737723       4.53904528
C         0.73719694      -0.83020916       3.31194602
C         1.76175822      -1.40923266       2.38221081
O         1.52270771      -1.37750957       1.15703354
N         2.80928052      -2.07008243       2.88073414
C         3.54268358      -2.95224452       1.98772572
C         3.44222131      -1.69721546       4.09546715
C         3.52279637      -0.35360081       4.44338091
C         4.27314932       0.03781903       5.53586464
C         4.97090087      -0.88857718       6.30682638
C         5.90386143      -0.51092919       7.44360612
C         5.59063885      -1.35612083       8.68867193
C         7.32656524      -0.81909411       6.94486264
C         5.82450673       0.96941879       7.83350533
C         4.85506237      -2.23298095       5.95179167
C         4.10636145      -2.64319663       4.86643306
N        -0.02484727       0.10836993       2.74686895
C        -1.10695782       0.55509511       3.40319326
C        -1.83674372       1.54692799       2.52916687
O        -1.40213344       1.65421791       1.37000638
N        -2.83006144       2.35435946       2.97794577
C        -3.83050048       1.86526807       3.91165671
C        -2.95438554       3.70673236       2.53010033
C        -1.93599822       4.33542288       1.81757410
C        -1.93536198       5.70264205       1.61810503
C        -2.93996691       6.52043431       2.12063270
C        -2.89976836       8.03498045       2.05988577
C        -3.19099509       8.59713933       3.45961594
C        -1.54887909       8.59087408       1.58693761
C        -3.97306216       8.52483420       1.08098668
C        -4.01765729       5.86886805       2.71790093
C        -4.02953070       4.50283944       2.92865428
C        -1.40909353       0.13398193       4.69216593
H         2.87022139       4.37542793       4.61226389
H         2.18485134       2.74054727       4.55018012
H         3.27587903       3.20570361       5.86612304
H         0.56926709       4.51729922       5.36288353
H         1.62564293       4.77979335       6.75097471
H         0.26563089       2.13830247       6.06259848
H        -0.33742541       3.33476926       7.22502146
H         1.95517889       3.08967672       8.39954049
H         2.15080932       1.61140088       7.46265216
H        -0.18586629       2.18718251       9.34008471
H         1.27373113       1.32502979       9.78812759
H         0.01537951      -0.50775229       9.29159051
H         0.62068700      -0.18494691       7.67846943
H        -1.52828022       1.15206889       7.26699485
H        -2.12882139       0.53784281       8.80055918
H        -2.87654454      -0.89112601       6.85855414
H        -1.96432073      -1.77011260       8.09311135
H         1.01370868      -2.21035080       4.95299239
H         3.08887391      -2.86375064       1.00200597
H         3.45481216      -3.98198993       2.33490645
H         4.59103025      -2.66229415       1.95358570
H         3.02033152       0.38176183       3.82985315
H         4.32357246       1.08903728       5.76095240
H         5.75848122      -2.41634515       8.51606231
H         4.55641433      -1.21246159       8.99796671
H         6.23610256      -1.05458948       9.51035163
H         7.45294339      -1.88345128       6.76149334
H         8.06912483      -0.51242704       7.67683340
H         7.51915755      -0.28521552       6.01586316
H         4.82343998       1.23871314       8.16615078
H         6.12362530       1.61527263       7.00993413
H         6.50704094       1.15747007       8.66081554
H         5.36797042      -2.98280011       6.53156067
H         4.03437987      -3.68971181       4.61367868
H        -3.73826796       0.78930001       4.02091374
H        -4.82957505       2.04496953       3.50749678
H        -3.75735280       2.37440780       4.87591077
H        -1.10728169       3.76623818       1.42887086
H        -1.10692144       6.12463297       1.07369597
H        -2.43216221       8.27455780       4.16890833
H        -4.16200809       8.28715781       3.83294429
H        -3.18979947       9.68187388       3.42057856
H        -0.70725263       8.02336885       1.97855458
H        -1.44580828       9.61839938       1.92774265
H        -1.49942852       8.60847985       0.49889038
H        -4.97433264       8.30475144       1.43845411
H        -3.83857519       8.05832265       0.10695179
H        -3.87920543       9.60004219       0.96434620
H        -4.86445895       6.44408907       3.05444313
H        -4.87913491       4.07528387       3.43432635
H        -2.21950382       0.54148082       5.26897104
