62
strain_lig_000 ligand at complex geometry  charge=0 uhf=0  from=68|C1CCC2OCCOCCOC3CCCCC3OCCOCCOC2C1|nitrate
C         4.17538154       3.47939236      -0.81119215
C         5.04713002       2.22939027      -0.77061397
C         4.20325651       0.98237071      -1.04832308
C         3.05670931       0.90897924      -0.02999350
O         2.27328755      -0.29371563      -0.18270780
C         2.84192060      -1.42016757       0.50491542
C         1.98615401      -1.70626360       1.74955068
O         0.61026784      -1.85629131       1.38168374
C         0.19070776      -3.12812950       0.86634402
C         0.33683628      -3.22823686      -0.67176376
O         0.02242285      -1.93755276      -1.19525243
C         0.04272729      -1.77337463      -2.62923144
C        -1.20560335      -2.30679534      -3.34532463
C        -1.11865772      -1.99040748      -4.84470933
C        -1.04963137      -0.48447557      -5.06256448
C         0.18162820       0.08424384      -4.35525135
C         0.20418921      -0.24633523      -2.85716538
O        -0.82452235       0.38715047      -2.05418016
C        -1.08129104       1.78234173      -2.26042142
C        -2.12092022       2.19182992      -1.19539309
O        -1.71827618       1.74538884       0.10709641
C        -1.25706331       2.72361360       1.04597091
C         0.17708702       3.14680725       0.71719612
O         0.94933951       1.94511218       0.54828730
C         2.16002243       2.13780060      -0.21567685
C         2.99601751       3.36789174       0.16241643
H         3.78790439       3.62028557      -1.82268637
H         4.76657078       4.35485486      -0.55090922
H         5.51643527       2.13687516       0.21093985
H         5.83376024       2.30663203      -1.51811194
H         4.82415194       0.08622553      -0.98816027
H         3.79446888       1.03073463      -2.06577629
H         3.47010009       0.93922051       0.99061015
H         3.87686536      -1.22440240       0.79555107
H         2.83290473      -2.26576817      -0.18485452
H         2.00907533      -0.83619669       2.41933308
H         2.34747140      -2.57816602       2.30241736
H        -0.87444371      -3.20047341       1.12582479
H         0.72611089      -3.94168882       1.36507844
H        -0.34784245      -3.99895560      -1.04051606
H         1.36277784      -3.50505496      -0.95936680
H         0.93398934      -2.28256775      -3.03435989
H        -2.10099652      -1.84377419      -2.91613320
H        -1.28574519      -3.38823034      -3.21918916
H        -1.98934956      -2.39692839      -5.35499830
H        -0.22978699      -2.46252912      -5.27039513
H        -1.95786344      -0.01396903      -4.68290999
H        -0.97483873      -0.26160148      -6.12503948
H         0.25653908       1.16465290      -4.50051869
H         1.07647644      -0.36322363      -4.80159189
H         1.18413575       0.05479245      -2.43929475
H        -1.51605080       1.96505025      -3.24620946
H        -0.14878029       2.36134143      -2.15741587
H        -3.06587939       1.68039417      -1.41707337
H        -2.28573506       3.27390054      -1.22329959
H        -1.27905238       2.22497783       2.02205081
H        -1.91973022       3.59596597       1.07680897
H         0.57775418       3.74103158       1.54278103
H         0.18659273       3.72973801      -0.21523540
H         1.87123940       2.21797752      -1.28309648
H         3.36535231       3.26536909       1.18878035
H         2.40574085       4.28294400       0.10546513
