123
strain_lig_075 ligand at complex geometry  charge=0 uhf=0  from=63|CCCCCCCCN(CCCCCCCC)C(=O)COC(C(=O)N(CCCCCCCC)CCCCCCCC)c1ccccc1|water
C        -1.22911270       2.93784138       5.48005649
C        -0.63593727       1.60250388       5.90414670
C         0.76699712       1.36601849       5.34370731
C         1.78489603       2.38805594       5.85052358
C         3.24017630       1.92081066       5.73008090
C         3.93907851       2.31601606       4.42660578
C         3.58787869       1.45370011       3.20879019
C         4.46288915       1.80941115       1.97465569
N         3.72039707       1.98115550       0.71944535
C         3.54291107       3.35939225       0.22863224
C         4.24636612       3.82710908      -1.05359563
C         4.08948684       5.35395264      -1.18997500
C         4.78971191       5.96834138      -2.41538101
C         3.90084547       6.08170217      -3.65882142
C         2.89071122       7.23504436      -3.72050261
C         2.18117153       7.20025133      -5.09045674
C         0.68043858       7.47153144      -5.06170588
C         2.95802015       0.98972942       0.25793513
O         2.12763460       1.11942110      -0.66213143
C         3.10526784      -0.39163288       0.90942218
O         2.28075607      -1.35444913       0.27897121
C         2.93760226      -2.34979160      -0.51951512
C         2.51528365      -2.08448315      -1.95643331
O         1.47040779      -1.41133908      -2.10448628
N         3.23866968      -2.54489990      -2.96830200
C         4.44005107      -3.35749055      -2.83036195
C         4.18978870      -4.87034990      -2.76504237
C         5.35801759      -5.62059288      -2.11782040
C         5.16433720      -7.13782388      -2.21980136
C         4.13704072      -7.67926685      -1.22679771
C         3.95521709      -9.19437049      -1.34262863
C         3.12542079      -9.62366720      -2.55152637
C         2.96595835     -11.13946696      -2.60976219
C         2.77930933      -2.17259345      -4.29937077
C         1.64904833      -3.06856182      -4.81532452
C         2.15910102      -4.34660240      -5.50831761
C         1.80969089      -4.38123459      -7.00386535
C         0.51222608      -5.14604724      -7.29839884
C        -0.36298100      -4.47939983      -8.35590399
C        -1.15302077      -3.30542351      -7.78453344
C        -1.77354383      -2.48169100      -8.90009979
C         2.47715632      -3.70638955      -0.03036902
C         1.59087260      -4.48307827      -0.76266440
C         1.20140645      -5.73054301      -0.30725923
C         1.66809532      -6.20669632       0.90539639
C         2.53882337      -5.42662574       1.64747468
C         2.94999436      -4.19169293       1.17970998
H        -2.27471221       2.99885133       5.76488494
H        -1.15098582       3.05999916       4.40404053
H        -0.70531401       3.75656393       5.96029885
H        -1.28858760       0.78833194       5.57164052
H        -0.59156786       1.55938700       6.99279526
H         0.72902540       1.36226633       4.24966210
H         1.09694534       0.37725184       5.66888330
H         1.56773798       2.56937917       6.90341947
H         1.66769979       3.34185537       5.33517865
H         3.29256530       0.84006108       5.87359087
H         3.81086110       2.38262216       6.53512767
H         5.01850732       2.26738030       4.58448539
H         3.67909437       3.34871305       4.21021760
H         2.53202650       1.58876039       2.95559135
H         3.74384963       0.40620198       3.48506702
H         5.24609160       1.05656280       1.84535168
H         4.97016447       2.75373490       2.17664087
H         3.89278984       4.00219171       1.03330803
H         2.47422908       3.51701869       0.08723788
H         3.81488483       3.35021981      -1.92792126
H         5.30477205       3.57887006      -1.00549348
H         4.49223147       5.81468092      -0.28731923
H         3.03435963       5.61786741      -1.22887894
H         5.66963488       5.36425701      -2.65891573
H         5.15380408       6.96619311      -2.16781568
H         3.32398685       5.16444238      -3.76934581
H         4.55987833       6.16570129      -4.52461927
H         3.38412656       8.19910105      -3.59496928
H         2.16243834       7.15908539      -2.91043031
H         2.33979716       6.21761369      -5.54236127
H         2.65289735       7.92529944      -5.75162934
H         0.45555321       8.45609943      -4.65938716
H         0.14683221       6.72724075      -4.47001959
H         0.28844861       7.42182807      -6.07468872
H         2.71495406      -0.33735794       1.92708706
H         4.15037695      -0.71136794       0.92481880
H         4.01832960      -2.25885892      -0.38826138
H         4.98677339      -3.06232058      -1.93440967
H         5.09301818      -3.15016470      -3.67940893
H         4.04601640      -5.26591222      -3.77004740
H         3.28745829      -5.06839441      -2.19175282
H         5.44996165      -5.33731291      -1.06402929
H         6.28702885      -5.34153342      -2.62086778
H         6.11950745      -7.63351067      -2.03909378
H         4.85803382      -7.38348649      -3.23706491
H         3.17441408      -7.18352115      -1.37668201
H         4.47546857      -7.43625795      -0.21597693
H         3.46456857      -9.56218959      -0.43921261
H         4.93659357      -9.66779988      -1.39670056
H         3.60130501      -9.27830407      -3.47159607
H         2.13630881      -9.15974283      -2.49096947
H         3.93657928     -11.62364208      -2.69335009
H         2.36440489     -11.42512150      -3.47008661
H         2.47638775     -11.51022946      -1.71067005
H         3.61855823      -2.21657230      -4.99233736
H         2.44064914      -1.13573185      -4.21827632
H         1.06846189      -2.49410395      -5.53856425
H         0.96885222      -3.30485054      -3.99525392
H         1.73720641      -5.22680977      -5.01968622
H         3.24330267      -4.40449444      -5.41113792
H         2.62279347      -4.85145543      -7.55760876
H         1.74046827      -3.35322551      -7.36361688
H        -0.07783580      -5.23585539      -6.38559784
H         0.76760099      -6.15700111      -7.61544723
H        -1.06782439      -5.21302776      -8.74666801
H         0.25203679      -4.13396571      -9.18700323
H        -0.49460939      -2.67681610      -7.17865387
H        -1.93836817      -3.69387990      -7.13116692
H        -0.99496020      -2.04400109      -9.51852967
H        -2.39267938      -1.67901886      -8.50872120
H        -2.38641134      -3.11986206      -9.52909951
H         1.21155012      -4.11864774      -1.70344182
H         0.54393008      -6.33764770      -0.90920216
H         1.36692234      -7.17809960       1.26495370
H         2.92323055      -5.78556831       2.58885888
H         3.64963543      -3.60536942       1.75489326
