25
strain_lig_174 ligand at complex geometry  charge=0 uhf=0  from=63|c1cc(-n2cccn2)nc(-n2cccn2)c1|nitrate
C         0.69055397       4.55669635       3.07162962
C         1.05102143       4.87974448       1.77079619
C         1.74363959       3.92628938       1.03078661
N         2.08836802       4.03585746      -0.31564022
C         2.33902435       5.13660668      -1.06205191
C         2.74576675       4.71087838      -2.29758968
C         2.71775935       3.30828758      -2.23019582
N         2.33671707       2.90624929      -1.02611673
N         2.13662097       2.76870731       1.56595423
C         1.84200779       2.49331544       2.84351782
N         2.38963546       1.26858754       3.23977231
C         2.99957296       0.95619707       4.40619892
C         3.60601065      -0.26250608       4.23995952
C         3.33630700      -0.62200792       2.91225010
N         2.60776898       0.30663267       2.30250556
C         1.08591168       3.34829315       3.63685162
H         0.07139749       5.24438082       3.63056378
H         0.74296086       5.80734447       1.31929485
H         2.25723063       6.12438892      -0.66015994
H         3.03673711       5.32173849      -3.12678319
H         2.96095199       2.59549860      -3.00243368
H         2.96596082       1.62550963       5.24012506
H         4.17686539      -0.82404078       4.95395774
H         3.63798018      -1.51061383       2.38546981
H         0.76468651       3.07523856       4.63097193
