113
strain_lig_078 ligand at complex geometry  charge=0 uhf=0  from=66|CCCCCCCCN(CCCCCCCC)C(=O)COCC(=O)N(CCCCCCCC)CCCCCCCC|water
C        -2.17052761       4.92621386       5.72275925
C        -2.86320490       4.75213610       4.37671470
C        -4.18048485       3.98463560       4.48056774
C        -4.00301128       2.52941991       4.91815627
C        -5.26024865       1.67539847       4.71574624
C        -5.27763020       0.85506610       3.42368467
C        -5.36067252       1.69343028       2.14903553
C        -5.44778257       0.83623778       0.87704627
N        -4.33697292      -0.09484775       0.69650520
C        -4.66055178      -1.52720154       0.58609155
C        -5.21438709      -2.24496942       1.81359021
C        -4.21617094      -2.61900453       2.91326468
C        -3.07603937      -3.54828058       2.48916804
C        -2.51915835      -4.29068708       3.70979047
C        -1.30177151      -5.16618884       3.39039654
C         0.04914831      -4.52795878       3.72289806
C         0.28343140      -3.15886162       3.08770897
C        -3.11262244       0.26247027       0.35426609
O        -2.19547412      -0.58227284       0.20793443
C        -2.74962412       1.71964249       0.00517664
O        -1.45762989       1.60688504      -0.58830460
C        -0.95254762       2.73458221      -1.30760538
C         0.15485329       2.13516867      -2.21337747
O         0.65625958       1.04478402      -1.86157497
N         0.43502021       2.72760515      -3.36037872
C         0.89817375       1.94428692      -4.51870888
C         2.39182722       1.63195535      -4.66504972
C         2.76339443       1.27280056      -6.11815439
C         2.11186972       0.01686416      -6.72460237
C         2.97589852      -1.25010451      -6.66982755
C         3.45745139      -1.64927407      -5.28031891
C         2.31370147      -1.89180768      -4.30112509
C         2.82523158      -1.93434573      -2.87083235
C         0.13680494       4.13385264      -3.60187894
C         1.37729005       4.99108883      -3.90659341
C         2.24204502       5.41495653      -2.70538813
C         3.45819247       4.53997345      -2.36654006
C         3.22098493       3.43435934      -1.33868300
C         4.48202208       2.60510648      -1.07275574
C         5.68425817       3.43972370      -0.63216953
C         6.92190653       2.61713781      -0.29260125
H        -1.26770082       5.52575588       5.62055785
H        -1.90621537       3.96535921       6.15629554
H        -2.83115780       5.44160491       6.41314860
H        -2.19680395       4.23290803       3.67503103
H        -3.06105565       5.73854036       3.95520191
H        -4.68686912       4.03070326       3.51591660
H        -4.81915472       4.48681667       5.20475022
H        -3.74558938       2.52081891       5.97664098
H        -3.16472468       2.07467763       4.37663615
H        -6.14007946       2.31794167       4.74692735
H        -5.34911457       0.96675511       5.53970245
H        -6.14762178       0.19825861       3.46319415
H        -4.38463012       0.22484641       3.37474931
H        -4.51097802       2.37566233       2.09629919
H        -6.26567717       2.30175731       2.18967487
H        -5.52654638       1.48651836      -0.00223399
H        -6.35452841       0.23090993       0.92755543
H        -3.75559927      -2.04384577       0.26833933
H        -5.40083705      -1.59527933      -0.21599900
H        -5.64317833      -3.17481297       1.43354983
H        -6.02822615      -1.66777305       2.25086747
H        -4.79450533      -3.13193668       3.68251658
H        -3.79309144      -1.73018731       3.38624240
H        -2.28868859      -2.98001761       1.98434809
H        -3.44623576      -4.28976025       1.77982269
H        -3.31901968      -4.92461316       4.09367749
H        -2.26867528      -3.58221027       4.50231363
H        -1.33632453      -5.44021151       2.33511466
H        -1.36186081      -6.08855197       3.96860585
H         0.83942663      -5.20851600       3.40027654
H         0.13458916      -4.42419135       4.80652843
H         0.12596374      -3.18718795       2.00932518
H         1.30273660      -2.82792631       3.27915406
H        -0.39199687      -2.42772735       3.52713788
H        -2.72243300       2.39161209       0.87201722
H        -3.47959714       2.11891822      -0.71008130
H        -0.57124210       3.49339848      -0.61288617
H        -1.74009562       3.17025790      -1.93099954
H         0.58055597       2.50884746      -5.39532997
H         0.34064201       1.00383070      -4.49179075
H         2.66690967       0.83679594      -3.97602278
H         2.97103616       2.51177070      -4.39337274
H         3.84632332       1.15104379      -6.17839716
H         2.50589744       2.13099475      -6.74333637
H         1.92617750       0.20248247      -7.78385229
H         1.13967532      -0.16459452      -6.26346540
H         3.85244033      -1.10148216      -7.30097346
H         2.40854691      -2.07784954      -7.09887567
H         4.11275238      -0.86858860      -4.89248002
H         4.05546573      -2.55806352      -5.36062623
H         1.81472707      -2.83118257      -4.54631916
H         1.58534543      -1.08476657      -4.37984600
H         3.48279687      -2.78641454      -2.72951651
H         1.99160458      -1.99392563      -2.17279743
H         3.39677661      -1.03421953      -2.65408806
H        -0.35388524       4.56796055      -2.72985588
H        -0.54907476       4.18120474      -4.45409759
H         0.97481236       5.90314429      -4.35118918
H         1.99606597       4.50889545      -4.66355183
H         1.61541312       5.53671163      -1.81656032
H         2.63615418       6.40170936      -2.95872522
H         4.21563383       5.20411449      -1.95339835
H         3.87232489       4.11365993      -3.28234762
H         2.44092518       2.75338856      -1.68000275
H         2.87914441       3.88694953      -0.40489700
H         4.25776267       1.86242117      -0.29679514
H         4.73302537       2.05973270      -1.98131694
H         5.40245684       4.01373197       0.24507475
H         5.95298897       4.14539088      -1.41721629
H         6.68863407       1.80666389       0.39810907
H         7.67570767       3.25430841       0.16383820
H         7.35711364       2.19318297      -1.19006897
