77
strain_lig_059 ligand at complex geometry  charge=0 uhf=0  from=66|CCCCCCCCN(CC)C(=O)COCC(=O)N(CC)CCCCCCCC|water
C        -4.65536554       0.20268557       2.98523887
C        -3.43159447       0.03025178       3.88202752
C        -3.06675940       1.28905192       4.66816874
C        -2.68600556       2.47837996       3.77399337
C        -3.87424463       3.41977749       3.55886503
C        -3.60103019       4.59065972       2.61470619
C        -3.46884460       4.16675912       1.14157336
C        -2.05774558       4.41507299       0.61137253
N        -1.89204767       3.88034242      -0.74204826
C        -2.08585717       4.77389526      -1.87936678
C        -3.44029333       4.59808463      -2.55356694
C        -1.63326818       2.59280036      -0.83197323
O        -1.54628920       1.86741042       0.19075113
C        -1.38086043       1.92343616      -2.19452311
O        -1.04980803       0.55128767      -1.94088060
C        -1.68027070      -0.46591750      -2.73952420
C        -1.81789106      -1.71174835      -1.82308672
O        -1.14370865      -1.72205521      -0.76709739
N        -2.68021005      -2.67342987      -2.12856450
C        -3.36141724      -3.38838036      -1.03365172
C        -2.52314098      -4.29470196      -0.14072273
C        -3.00421034      -2.99900399      -3.51528808
C        -1.81392141      -3.58703321      -4.29020044
C        -1.22648488      -4.87713065      -3.70580215
C        -0.12663426      -4.70037519      -2.65398838
C         1.13242673      -3.98036855      -3.14511977
C         1.90174640      -4.68949438      -4.26047896
C         3.25836729      -4.03255907      -4.52730685
C         3.15892107      -2.56030296      -4.91627131
H        -4.92596967      -0.73930636       2.50813832
H        -5.50950670       0.51719424       3.57869284
H        -4.48670801       0.96629616       2.22518998
H        -3.63809900      -0.77297704       4.59141798
H        -2.54893040      -0.25586492       3.29151759
H        -3.90007438       1.57054812       5.31295629
H        -2.22810222       1.04485249       5.32229918
H        -1.89662983       3.05294414       4.26290701
H        -2.27505507       2.10652994       2.82188883
H        -4.74400586       2.87430587       3.19293520
H        -4.14684432       3.82785856       4.53292175
H        -4.43381280       5.28601645       2.70628955
H        -2.70220024       5.12084255       2.93683648
H        -3.70251129       3.10447254       1.03922042
H        -4.17319965       4.72393012       0.52296329
H        -1.85032661       5.48448355       0.61260854
H        -1.32935888       3.91681690       1.25845356
H        -2.01213505       5.79547953      -1.50809945
H        -1.27707994       4.63320589      -2.59830662
H        -4.24203285       4.80223931      -1.85272727
H        -3.51887598       5.29891722      -3.37855298
H        -3.58064445       3.59626131      -2.94585149
H        -2.24778737       2.00251736      -2.85703594
H        -0.52211646       2.41313830      -2.67757598
H        -2.67898748      -0.14704562      -3.07029091
H        -1.06219319      -0.66791890      -3.62476330
H        -3.82041491      -2.61491598      -0.41016424
H        -4.16520127      -3.97589918      -1.47569957
H        -1.71004292      -3.74261706       0.32803406
H        -3.16861536      -4.68778693       0.64219229
H        -2.12566826      -5.13650420      -0.69815511
H        -3.81194566      -3.73060403      -3.52116501
H        -3.36701966      -2.11211673      -4.04331255
H        -2.18531142      -3.80484372      -5.29298644
H        -1.03042085      -2.83769252      -4.39579747
H        -2.03370369      -5.47214611      -3.27572191
H        -0.80627991      -5.45928918      -4.52374918
H        -0.51035121      -4.14477847      -1.79678986
H         0.15301582      -5.69691165      -2.30541448
H         0.85217987      -2.98362422      -3.49587424
H         1.80875451      -3.87223838      -2.28741449
H         2.06848023      -5.73053170      -3.97891720
H         1.31651686      -4.67978360      -5.18072469
H         3.89043736      -4.13047360      -3.64179293
H         3.74511517      -4.57620753      -5.33625017
H         2.86016365      -1.94342857      -4.06659204
H         4.12508161      -2.20177117      -5.26045444
H         2.43749044      -2.42384581      -5.71912409
