143
strain_lig_043 ligand at complex geometry  charge=0 uhf=0  from=66|CCCCCCCCCCN(CCCCCCCCCC)C(=O)C(C)OC(C)C(=O)N(CCCCCCCCCC)CCCCCCCCCC|nitrate
C         2.33541550      -6.26688180       0.07396878
C         2.26004163      -7.47968924      -0.84553929
C         2.75760534      -7.18858137      -2.26078561
C         1.79400538      -6.32072928      -3.06701596
C         2.28434831      -6.04598928      -4.48990940
C         3.58386688      -5.24066527      -4.61015648
C         3.51234578      -3.86003467      -3.95468778
C         4.69558915      -2.94306432      -4.28503900
C         4.44050511      -1.48013330      -3.88658344
C         4.38161271      -1.37076590      -2.35646165
N         3.79104048      -0.19097658      -1.71523998
C         4.64409434       0.54264091      -0.76045692
C         4.96078601       2.01307313      -1.07795624
C         6.31850092       2.49024248      -0.51091490
C         6.54934244       2.35622796       1.00128951
C         7.93118175       2.89711724       1.41709203
C         8.56738953       2.17779382       2.61728838
C         8.14275873       2.70129700       3.98706247
C         8.94782915       2.05579240       5.11930410
C         8.62605520       0.58324627       5.39814651
C         7.33789443       0.44149811       6.20250244
C         2.47067540      -0.01252145      -1.61894745
O         1.97275397       0.81214642      -0.82688091
C         1.45850778      -0.78304346      -2.52175370
C         1.14112865      -2.21075778      -2.06700851
O         0.24823860      -0.06009542      -2.34809107
C        -0.52044341       0.30645183      -3.49441659
C        -1.54384773      -0.77967266      -3.86489037
C        -1.12764757       1.64952220      -3.02378837
O        -1.00519617       1.91064030      -1.80869338
N        -1.62569172       2.50399826      -3.90294231
C        -1.87626998       2.19846722      -5.30517889
C        -3.24667587       2.67531666      -5.82261975
C        -4.43132451       2.44815517      -4.88316727
C        -4.97026573       1.01945787      -4.81316189
C        -6.02073682       0.95849537      -3.70242074
C        -6.71857641      -0.38422731      -3.48137165
C        -5.82443809      -1.46622915      -2.86255876
C        -5.31032029      -2.48712567      -3.87509304
C        -4.46468108      -3.56887324      -3.20465113
C        -3.93003879      -4.58268997      -4.20878734
C        -1.71675106       3.91375956      -3.52132426
C        -0.32996973       4.56661021      -3.57418169
C        -0.41462172       6.08854778      -3.39428116
C         0.66095760       6.62320688      -2.45159653
C         0.68439168       8.15153385      -2.38669305
C        -0.66537184       8.80352003      -2.08636158
C        -1.32978372       8.36174862      -0.78186579
C        -0.63262520       8.90422117       0.46411200
C        -1.29731253       8.45683610       1.76737715
C        -2.73508648       8.94052407       1.92294076
H         2.11264263      -6.55438765       1.09954729
H         1.62087344      -5.50093567      -0.22396945
H         3.33861265      -5.84316174       0.04256306
H         1.23155775      -7.83486707      -0.89628861
H         2.86657106      -8.27811473      -0.41837632
H         2.89632423      -8.13696589      -2.78425333
H         3.72952296      -6.69759607      -2.20364132
H         1.60982013      -5.37971950      -2.54396682
H         0.83677806      -6.84090065      -3.13902716
H         1.49174383      -5.52529045      -5.03262939
H         2.44893698      -7.00406398      -4.98535186
H         3.80586505      -5.13090171      -5.67172781
H         4.40577711      -5.80291291      -4.16935421
H         3.45802024      -4.01655446      -2.87417938
H         2.59173039      -3.37021894      -4.28111284
H         4.89077984      -2.97991524      -5.35631760
H         5.59313334      -3.29962565      -3.77892517
H         3.52290950      -1.13697935      -4.36196287
H         5.24939818      -0.85714056      -4.26529034
H         5.40858960      -1.45002812      -2.00284824
H         3.85044127      -2.24479265      -1.98588250
H         5.58793996       0.00412727      -0.71564485
H         4.14352091       0.49854418       0.20982145
H         4.16298437       2.64965906      -0.69470247
H         5.00172347       2.13928480      -2.16012965
H         6.41136033       3.54687855      -0.76938928
H         7.12757090       1.96002484      -1.01868167
H         6.51362289       1.30023989       1.27273535
H         5.76081541       2.88311842       1.54373880
H         7.86858224       3.95975158       1.64789741
H         8.61540917       2.79414080       0.57360384
H         9.65286078       2.29678769       2.55447841
H         8.35059975       1.11001184       2.56547399
H         7.07337197       2.55201192       4.15078710
H         8.32849056       3.77587040       4.01936450
H         8.75734239       2.61501927       6.03684400
H        10.01013136       2.15331662       4.89137786
H         9.44920857       0.14717704       5.96797173
H         8.54492875       0.01311488       4.47062997
H         7.47567211       0.87691789       7.18776329
H         7.05932277      -0.60476836       6.32174454
H         6.52375882       0.96967261       5.71002987
H         1.78909160      -0.75776516      -3.56661776
H         0.53118892      -2.13773488      -1.16170969
H         2.01850718      -2.81306781      -1.87391822
H         0.55557229      -2.71300604      -2.83295708
H         0.15624701       0.51582243      -4.33401444
H        -2.53169586      -0.51464759      -3.49822403
H        -1.26262159      -1.71870594      -3.39580013
H        -1.59594099      -0.94958604      -4.93760210
H        -1.80308060       1.12613852      -5.44168870
H        -1.10170989       2.67654660      -5.91658880
H        -3.43105324       2.15823734      -6.76460697
H        -3.18913005       3.73861025      -6.05780785
H        -5.24286833       3.09774986      -5.21326437
H        -4.15881376       2.76200615      -3.87581470
H        -4.16057073       0.32237188      -4.60200623
H        -5.41494969       0.74452742      -5.77120535
H        -6.78838705       1.70352002      -3.92669345
H        -5.53924342       1.24558141      -2.76425492
H        -7.14518791      -0.74925844      -4.41587175
H        -7.55150173      -0.19392599      -2.80247753
H        -6.38367052      -2.00430212      -2.09316118
H        -4.97661807      -0.98812079      -2.37153919
H        -4.72222744      -1.98340754      -4.64541126
H        -6.16180245      -2.95960299      -4.36863401
H        -5.07686598      -4.08942840      -2.46512213
H        -3.63606093      -3.09709505      -2.66825825
H        -4.75288635      -5.03235899      -4.75724920
H        -3.38555477      -5.37719085      -3.70408785
H        -3.26508237      -4.10760587      -4.92666711
H        -2.12509128       3.98345549      -2.51136686
H        -2.38440962       4.41742070      -4.21687256
H         0.13633659       4.34035817      -4.53483679
H         0.29552357       4.12599717      -2.79424978
H        -1.39549599       6.35208591      -2.99766154
H        -0.30662925       6.57525548      -4.36395843
H         1.64393394       6.29201574      -2.79320938
H         0.50384951       6.21041512      -1.45338246
H         1.02661764       8.53615453      -3.35000989
H         1.41660074       8.45569929      -1.63552169
H        -1.35223309       8.60162329      -2.90915678
H        -0.51711538       9.88350567      -2.05213683
H        -1.37100434       7.27122789      -0.72370082
H        -2.35850509       8.72486935      -0.78750651
H        -0.63521622       9.99497300       0.42004764
H         0.41004845       8.57539275       0.47963267
H        -0.70696488       8.84551785       2.59866391
H        -1.27871920       7.36588858       1.83017837
H        -2.80828208      10.00512507       1.71390061
H        -3.07625405       8.76872771       2.94146549
H        -3.40812305       8.41223003       1.25174093
