91
strain_lig_073 ligand at complex geometry  charge=0 uhf=0  from=63|CCCCCCCCN(CCCCCCCC)C(=O)CNCP(=O)(OCCCC)OCCCC|nitrate
C         0.45822994      -0.15575332      -4.58474900
C        -0.55167387       0.98495253      -4.63044229
C        -0.16406937       2.11730162      -3.68192702
C        -1.10547936       3.32039243      -3.75207402
C        -2.50798186       3.05788192      -3.19350891
C        -2.51747875       2.91780789      -1.67270976
C        -3.90454117       2.58788825      -1.11716596
C        -3.93536393       2.50991473       0.42029760
N        -4.01582075       1.15590558       0.98333050
C        -5.21356864       0.85535112       1.76263691
C        -6.54863509       0.90497360       1.00462430
C        -7.01268953      -0.42365253       0.39510042
C        -6.65599844      -0.61346310      -1.07918450
C        -5.26538699      -1.18765923      -1.33896550
C        -5.11431964      -1.66047926      -2.78493594
C        -5.19771442      -0.53548837      -3.81238989
C        -4.95631137      -1.06480830      -5.21950532
C        -2.91829323       0.40807990       0.97543599
O        -1.85852958       0.79742765       0.44677707
C        -2.92109555      -0.95587915       1.68329178
N        -1.72912668      -1.71939682       1.34340685
C        -0.65978896      -1.83587922       2.29642563
P         1.08011250       0.21025469       2.60816836
O         0.46052396      -1.07767395       1.78258517
O         1.76165604       0.75723969       1.20134450
C         2.27138689       2.10623278       1.19017150
C         1.34142054       3.00901988       0.37335787
C         1.36819875       4.46054677       0.84782646
C         0.36458940       5.29917619       0.06854884
O        -0.29767670       1.10692699       2.57169068
C        -0.50203362       2.23606136       3.42772709
C        -1.80864522       2.12365330       4.20615065
C        -1.83395131       0.96259317       5.20186291
C        -0.55702403       0.83042729       6.02808312
H         0.16202832      -0.95652780      -5.25762126
H         0.52972826      -0.57623316      -3.57324091
H         1.44806270       0.19019902      -4.87488362
H        -1.53442890       0.59623728      -4.36499880
H        -0.60658254       1.37089846      -5.64970687
H         0.84398060       2.44918936      -3.93761667
H        -0.13721685       1.73244416      -2.64813464
H        -1.19435156       3.62698259      -4.79680630
H        -0.66176005       4.15565525      -3.20387759
H        -2.91232513       2.15419739      -3.64656344
H        -3.15754582       3.88673154      -3.48017497
H        -2.17254330       3.85612443      -1.23522201
H        -1.81679666       2.12528784      -1.38799298
H        -4.24565660       1.64376674      -1.53991043
H        -4.60098764       3.36461490      -1.43561949
H        -4.79249516       3.05889728       0.81190720
H        -3.02312502       2.96971695       0.81072640
H        -5.25060415       1.58711441       2.57855137
H        -5.12772549      -0.12813985       2.21720453
H        -6.51873524       1.66819514       0.22928364
H        -7.29847060       1.21938048       1.73246943
H        -8.09860646      -0.45912614       0.47525655
H        -6.63233870      -1.26107856       0.98419923
H        -6.76616257       0.34206506      -1.59170881
H        -7.37831854      -1.30020313      -1.52149091
H        -5.10991655      -2.04600529      -0.67850286
H        -4.49041568      -0.45050429      -1.11398655
H        -5.89084486      -2.39714418      -2.99665276
H        -4.15062337      -2.15701004      -2.90296478
H        -4.44668186       0.22228729      -3.57915988
H        -6.17825694      -0.05949115      -3.77354040
H        -3.97566907      -1.52837842      -5.28497774
H        -5.01236426      -0.26110279      -5.94908934
H        -5.70376571      -1.81100639      -5.47631835
H        -3.81047914      -1.51722567       1.39701566
H        -2.94394450      -0.75391650       2.76102439
H        -1.92412362      -2.58667894       0.85876068
H        -0.33041614      -2.88080429       2.38641021
H        -0.93627471      -1.43591155       3.28018183
H         3.27364501       2.05775548       0.75897152
H         2.36528793       2.49425560       2.21359309
H         0.31610274       2.61132747       0.45686171
H         1.62860405       2.96716396      -0.67829036
H         2.37017343       4.86599990       0.71168235
H         1.13861141       4.50557864       1.91532259
H         0.57448910       5.24756822      -0.99648504
H         0.41712027       6.33943999       0.37521997
H        -0.64714607       4.93499515       0.23871107
H        -0.53452837       3.12620490       2.79226382
H         0.34053350       2.34035340       4.11756716
H        -2.63468094       2.02034841       3.50015791
H        -1.95853443       3.05860077       4.74507237
H        -2.00379819       0.02660293       4.66482428
H        -2.67890079       1.11277633       5.87379087
H         0.26464955       0.44455001       5.42288369
H        -0.71389913       0.13323414       6.84812158
H        -0.26399549       1.79045567       6.44903414
