144
strain_lig_087 ligand at complex geometry  charge=0 uhf=0  from=63|CCCCCCCCN(CCCCCCCC)C(=O)COCC(=O)NCc1ccc(CNC(=O)COCC(=O)N(CCCCCCCC)CCCCCCCC)cc1|nitrate
C         2.11167256     -11.63175761       1.55934537
C         1.56468231     -10.41771912       2.30047160
C         0.31145514     -10.76280580       3.10212722
C        -0.16327099      -9.64492114       4.03464294
C        -0.64819832      -8.39016029       3.29753919
C         0.42560789      -7.30658348       3.19990261
C        -0.04809049      -6.15021365       2.31795641
C         1.11855319      -5.21480897       1.98443702
N         0.84351687      -4.33840770       0.85774085
C         0.88539094      -4.94461596      -0.46631094
C         2.15141459      -4.54828752      -1.23656638
C         3.41080029      -5.31926442      -0.81809911
C         3.55866523      -6.71442272      -1.44545936
C         2.56183496      -7.78230791      -0.96381806
C         1.39012674      -7.99032406      -1.92524021
C         0.34143638      -8.94104565      -1.35512868
C        -0.82000081      -9.13072097      -2.32144448
C         0.52547756      -3.06552288       0.95589027
O         0.23065600      -2.35991523      -0.03243955
C         0.48548603      -2.41600628       2.33399043
O         0.22957657      -1.05563450       2.05928382
C         0.28731235      -0.14995908       3.15682203
C        -1.07604562       0.54165213       3.03718162
O        -1.33450596       1.06924781       1.94674384
N        -1.87684865       0.41753527       4.08458602
C        -3.30271590       0.72590221       4.15164374
C        -4.09199697      -0.55673137       4.23174651
C        -4.70727643      -0.96504145       5.40628051
C        -5.37120885      -2.17813576       5.45184339
C        -5.42326685      -2.99383355       4.33213526
C        -6.10352633      -4.33934859       4.37442249
N        -5.22048731      -5.38099897       3.89149810
C        -3.97142025      -5.71258587       4.29535474
O        -3.27950457      -6.40875539       3.58200528
C        -3.50410929      -5.23824472       5.66892543
O        -2.41178621      -4.34463112       5.48850131
C        -1.70548164      -4.03476509       6.67311983
C        -0.79841101      -5.18990625       7.16242683
O        -0.85473672      -6.26842339       6.61205121
N         0.01227966      -4.94335906       8.22681389
C         0.37317310      -3.56417758       8.55596634
C         1.00125117      -3.19796134       9.90841123
C         0.01670075      -2.82261753      11.01922970
C        -0.86802892      -1.60982472      10.71616333
C        -0.14823988      -0.26873018      10.84842947
C        -1.07526339       0.91731910      10.56842231
C        -1.27640383       1.15690155       9.07591352
C        -2.21184536       2.32556000       8.78646978
C         0.90642600      -6.03055287       8.61529919
C         0.22411397      -7.25963492       9.22910024
C        -0.62664297      -7.00279119      10.48173837
C        -2.11861317      -6.75054310      10.19172746
C        -2.50737276      -5.28280689      10.33639217
C        -3.91808566      -4.97515694       9.85148875
C        -4.16197576      -3.46951458       9.82605734
C        -5.58959113      -3.13692204       9.42438296
C        -4.81523637      -2.57403844       3.15235240
C        -4.15268960      -1.36545465       3.10151230
H         3.00055170     -11.36424289       0.99078997
H         1.36758119     -12.02991937       0.87187166
H         2.38142879     -12.41719871       2.26163647
H         1.33333730      -9.63697820       1.57252043
H         2.33289902     -10.03898412       2.97908221
H         0.51388608     -11.65038619       3.70525344
H        -0.49812846     -11.01600188       2.41336144
H         0.64040007      -9.37167179       4.72086525
H        -0.98048920     -10.03946890       4.64024722
H        -1.51481566      -7.96223502       3.80118495
H        -0.96259653      -8.67786045       2.29154786
H         1.34109061      -7.73695578       2.78827687
H         0.64497987      -6.92759800       4.19950237
H        -0.85118510      -5.62591264       2.83681012
H        -0.46134409      -6.55318101       1.39166291
H         1.98788856      -5.81855854       1.71294024
H         1.38306604      -4.63236796       2.86223585
H        -0.00068134      -4.61963028      -1.01791256
H         0.83375059      -6.01907437      -0.32613885
H         2.31755168      -3.47393127      -1.09830421
H         1.98738032      -4.72740904      -2.30165454
H         3.46280927      -5.40492865       0.27046237
H         4.27867042      -4.73232825      -1.13311243
H         4.57635497      -7.05167495      -1.22979063
H         3.48286429      -6.62257621      -2.53181472
H         2.19961974      -7.52440376       0.03483028
H         3.08867677      -8.73159499      -0.86081834
H         1.77333103      -8.40849366      -2.85766680
H         0.92064896      -7.03383296      -2.17096473
H        -0.03953065      -8.55597028      -0.40506436
H         0.80461626      -9.90795838      -1.15768822
H        -1.33670242      -8.18821545      -2.50156074
H        -1.53785682      -9.84216820      -1.92393498
H        -0.46259228      -9.51185863      -3.27493213
H         1.44687680      -2.52996579       2.84251640
H        -0.31560121      -2.87326637       2.93140635
H         1.09621302       0.57918764       2.99091621
H         0.45073691      -0.66755091       4.09774798
H        -1.52073641      -0.07026311       4.89863048
H        -3.54594895       1.28728353       3.24983649
H        -3.47228657       1.34311001       5.03721325
H        -4.67081290      -0.34340341       6.28946394
H        -5.83761617      -2.48369845       6.37574778
H        -6.97307505      -4.34167099       3.71375128
H        -6.47643172      -4.55961538       5.37917470
H        -5.47107039      -5.82377018       3.01801265
H        -3.16404844      -6.12429152       6.21801623
H        -4.29995650      -4.73805513       6.23719237
H        -2.40732488      -3.77488419       7.47945418
H        -1.11540448      -3.15106393       6.40502435
H        -0.53740828      -2.97562782       8.47774284
H         1.07648876      -3.23128519       7.78745826
H         1.63491205      -2.33011955       9.71179505
H         1.65360921      -3.98968231      10.27160930
H         0.59689822      -2.60346323      11.91799010
H        -0.61087220      -3.68562769      11.23253577
H        -1.70334901      -1.62150901      11.41543715
H        -1.29294970      -1.69521157       9.71396993
H         0.69454296      -0.23569708      10.15448675
H         0.25136727      -0.18344200      11.86000005
H        -0.64884441       1.81972483      11.00806980
H        -2.04260555       0.73994711      11.03933413
H        -1.67325602       0.25348623       8.60721668
H        -0.29932523       1.36251788       8.63428406
H        -3.20837342       2.13330197       9.17900359
H        -2.29347924       2.50377383       7.71281796
H        -1.83640496       3.23383159       9.25238166
H         1.61276923      -5.62993436       9.33682029
H         1.46740332      -6.37008130       7.73427096
H         1.03566683      -7.94205872       9.49316216
H        -0.38267536      -7.75386533       8.47140208
H        -0.20675538      -6.15716961      11.02960146
H        -0.53773905      -7.87335530      11.13601282
H        -2.73063148      -7.35305211      10.86585885
H        -2.33700550      -7.07668692       9.17255333
H        -1.80350698      -4.68812799       9.75541293
H        -2.42616342      -4.98614178      11.38469064
H        -4.64790989      -5.44813221      10.50917466
H        -4.06211884      -5.38993002       8.84991956
H        -3.46773428      -2.99106940       9.12751313
H        -3.95556133      -3.05316256      10.81207780
H        -5.82182152      -3.57816316       8.45608233
H        -5.74242326      -2.06135646       9.36574917
H        -6.28532618      -3.54155385      10.15348681
H        -4.85704943      -3.21115070       2.28201772
H        -3.66584484      -1.03679143       2.19174652
