146
strain_lig_046 ligand at complex geometry  charge=0 uhf=0  from=66|CCCCCCCCCCN(CCCCCCCCCC)C(=O)[C@H](C)O[C@H](CC)C(=O)N(CCCCCCCCCC)CCCCCCCCCC|nitrate
C         2.71927117       6.50464033       3.23944623
C         1.82650713       7.41403183       4.07641884
C         0.33424268       7.16288290       3.85076257
C        -0.18096554       5.84565977       4.43732584
C        -0.12284660       5.79776470       5.97381189
C         0.93922477       4.84867131       6.53320393
C         0.52690736       3.38841643       6.34297582
C         1.68542467       2.41550222       6.58726894
C         1.43172226       1.05305048       5.92504577
C         2.62701881       0.54663192       5.09718505
N         2.14696529      -0.29315759       4.01060180
C         1.85262870      -1.69480364       4.32467472
C         3.10440489      -2.35906703       4.91587628
C         3.32748901      -3.83278610       4.57520899
C         4.77139294      -4.24952000       4.88571072
C         5.79567784      -3.69056895       3.89001095
C         7.20151171      -3.51763620       4.47139026
C         7.34992665      -2.44201657       5.54910195
C         6.91194556      -1.05870595       5.06908589
C         7.41392676       0.06507381       5.97737336
C         6.68942315       1.38116036       5.70453865
C         1.65169439       0.26624695       2.90878273
O         0.74656074      -0.26530124       2.23115679
C         2.34260553       1.53324149       2.35446579
C         1.75162203       2.86140568       2.80832718
O         2.24937664       1.46170256       0.92576798
C         3.29651591       0.68735504       0.34363933
C         4.50174605       1.49900088      -0.13947405
C         4.14436066       2.87238932      -0.68750769
C         2.60553527      -0.30779981      -0.57311071
O         1.67660287      -0.93401488      -0.01849450
N         3.07588858      -0.73971190      -1.74428890
C         2.61813084      -2.10160156      -2.04984671
C         3.14243065      -3.14598708      -1.04712618
C         2.41608626      -4.48614008      -1.26436525
C         2.13541539      -5.35131798      -0.02713699
C         1.07541091      -4.82586012       0.97831683
C         0.25495059      -3.64164538       0.47050935
C        -0.71041167      -3.00757109       1.47973681
C        -2.09948762      -3.63139699       1.52936517
C        -2.81194479      -3.59377442       0.18214741
C        -4.28206935      -3.97851536       0.32009520
C         3.26212100       0.17194973      -2.86332385
C         1.89868372       0.68807993      -3.35864067
C         1.92478910       1.13083372      -4.82381231
C         0.57178505       0.98158690      -5.53889141
C        -0.34384863       2.21003228      -5.49470610
C        -1.78478675       1.84895648      -5.86625702
C        -2.69197337       3.06614190      -6.05933585
C        -4.16356648       2.66526943      -6.19901248
C        -4.91606566       2.57725828      -4.86820678
C        -5.43455014       3.92765877      -4.37917474
H         3.76064290       6.79652387       3.34645316
H         2.45142160       6.57476816       2.18570734
H         2.62516201       5.47075702       3.56021612
H         2.04204374       8.45208837       3.81893858
H         2.06809519       7.28387899       5.13160937
H         0.13710766       7.17001743       2.77385968
H        -0.23670472       7.98372204       4.29088881
H         0.38772753       5.02001234       4.00959022
H        -1.21754523       5.71920861       4.11837709
H        -1.08926490       5.47951450       6.36773383
H         0.06483183       6.80281649       6.34879963
H         1.08342191       5.04416379       7.59852158
H         1.89557771       5.02242144       6.03170482
H         0.15870303       3.25509847       5.32212474
H        -0.29993143       3.14460234       7.01310686
H         1.83943745       2.28517729       7.65745750
H         2.60470445       2.85180979       6.18627572
H         0.57060966       1.14587445       5.25900411
H         1.17331948       0.30851990       6.67635843
H         3.31096711      -0.02668236       5.71926358
H         3.17812968       1.39028058       4.68242665
H         1.57376227      -2.16597878       3.37971951
H         1.00286189      -1.75411093       5.00952773
H         3.08973246      -2.25785630       5.99968026
H         3.96737617      -1.81750138       4.53195401
H         3.13879981      -4.00512211       3.51567860
H         2.64205948      -4.45393815       5.15214690
H         4.83395421      -5.33810659       4.87677014
H         5.01773854      -3.92434690       5.89476260
H         5.45824977      -2.73439565       3.48843597
H         5.86526691      -4.36957024       3.03806308
H         7.87610484      -3.26230444       3.65125750
H         7.53433084      -4.47049927       4.88038471
H         8.40359874      -2.40002751       5.83082056
H         6.79236866      -2.71057987       6.44826948
H         5.82006538      -1.01592993       5.03238973
H         7.28699503      -0.89481115       4.05392955
H         8.48546028       0.20377442       5.81768004
H         7.26658868      -0.21624136       7.02305591
H         6.77551303       1.65503960       4.65268961
H         7.12190818       2.17915038       6.30341293
H         5.63205883       1.29719840       5.95955310
H         3.40446722       1.49393559       2.63560875
H         0.68823723       2.89856067       2.59014714
H         2.25571712       3.65451734       2.25905790
H         1.90039413       3.00479640       3.87406555
H         3.67065222      -0.01390685       1.11127459
H         5.19947281       1.61436181       0.69267521
H         5.02949636       0.89906003      -0.87750170
H         3.35619143       2.81342827      -1.43120409
H         5.01380818       3.32422410      -1.15234595
H         3.81181565       3.51943068       0.11691146
H         2.94248513      -2.35177861      -3.05384754
H         1.53065206      -2.10616379      -2.00583331
H         2.98064960      -2.80011861      -0.02760164
H         4.21664154      -3.26903983      -1.16800578
H         3.00263688      -5.08221923      -1.96371558
H         1.45610739      -4.29569946      -1.73885461
H         3.07126255      -5.54722921       0.49904731
H         1.79277345      -6.31908665      -0.40181438
H         1.57031763      -4.52934151       1.90440671
H         0.42630659      -5.66360571       1.23285350
H        -0.29822592      -3.92472423      -0.42294645
H         0.96522754      -2.87317972       0.19544592
H        -0.84302475      -1.94013797       1.18310336
H        -0.27365499      -3.03665525       2.48078181
H        -2.69829295      -3.07580979       2.25147843
H        -2.02568241      -4.66128475       1.86963025
H        -2.33459817      -4.31428893      -0.48288028
H        -2.70082363      -2.58902877      -0.24920734
H        -4.34637496      -4.89547913       0.90020405
H        -4.72607878      -4.16447433      -0.65739915
H        -4.85212899      -3.21217663       0.84127307
H         3.77256399      -0.37447853      -3.65705182
H         3.88108054       1.01362520      -2.57093378
H         1.56857125       1.51239567      -2.72516282
H         1.16234528      -0.10836084      -3.23943847
H         2.65564222       0.52527758      -5.35919878
H         2.27307014       2.15910033      -4.89550569
H         0.02941574       0.14052450      -5.10097241
H         0.75841576       0.72493741      -6.58270244
H         0.00901783       2.96958140      -6.19417917
H        -0.33120528       2.65031833      -4.49436149
H        -2.20615424       1.20162319      -5.09015138
H        -1.78142005       1.26385525      -6.78808048
H        -2.38292287       3.59060415      -6.96188994
H        -2.57089914       3.76075943      -5.22759541
H        -4.20440288       1.69761078      -6.70060879
H        -4.68189027       3.38041967      -6.83598088
H        -4.26865579       2.13916104      -4.10176355
H        -5.77103339       1.90857453      -4.98593773
H        -6.15692280       4.33242767      -5.08507265
H        -4.63041652       4.65327199      -4.26928838
H        -5.93992617       3.81780098      -3.41928802
