57
strain_lig_157 ligand at complex geometry  charge=0 uhf=0  from=66|COCCN(CCOC)C(=O)COCC(=O)N(CCOC)CCOC|water
C        -1.80602434      -1.06799337      -2.51917599
O        -1.00031496      -1.48491480      -1.39280768
C        -1.48120802      -2.77025033      -0.93223946
C        -0.48329991      -3.54514894      -0.05779605
N         0.33870603      -2.80305064       0.91120807
C         1.76350265      -3.07680332       0.83331549
C         2.31757765      -2.55174469      -0.50022257
O         1.86782858      -1.19712374      -0.73164500
C         2.55884967      -0.66003138      -1.87615996
C        -0.22160748      -1.89132440       1.71722246
O        -1.31758889      -1.38331161       1.41677561
C         0.50762351      -1.26806187       2.91412017
O         1.06438255      -0.05706396       2.36058698
C         0.79137505       1.21735489       2.98486126
C        -0.10739406       1.91792738       1.96269238
O        -1.13546882       1.26462667       1.68146251
N         0.16377509       3.03984453       1.29565807
C        -0.87310137       3.54684755       0.39191751
C        -0.61509880       3.29377854      -1.09972165
O        -0.22863474       1.92458739      -1.37674375
C         0.19978160       1.82328406      -2.75250061
C         1.47947249       3.64230151       1.21932022
C         2.34963682       2.85053834       0.21864381
O         2.22023215       1.43365186       0.41397753
C         3.42978968       0.88062166       0.97500942
H        -2.86314800      -1.28079854      -2.33990401
H        -1.48944329      -1.59451172      -3.42233290
H        -1.68322097       0.00763550      -2.65824886
H        -1.67135592      -3.39240356      -1.81313203
H        -2.43174927      -2.61841155      -0.40699257
H         0.21515643      -4.07843861      -0.70057543
H        -1.07111852      -4.28733862       0.49174385
H         1.95216033      -4.15215162       0.89711403
H         2.28546771      -2.58998233       1.65456562
H         2.01592611      -3.16666932      -1.35851089
H         3.41352271      -2.57249045      -0.45061214
H         3.62178265      -0.90917866      -1.83489723
H         2.45437116       0.42279014      -1.83979506
H         2.14535867      -1.06034388      -2.80691519
H         1.30932033      -1.87287771       3.35606978
H        -0.25364783      -1.06341621       3.67872036
H         1.74338300       1.69997403       3.21766452
H         0.22243717       1.09456425       3.91374874
H        -0.95894774       4.62771886       0.53263387
H        -1.82115646       3.09554862       0.69711801
H         0.17369847       3.95612522      -1.47468023
H        -1.53917063       3.52102348      -1.64726035
H        -0.57577661       2.19660252      -3.42817360
H         0.39718622       0.77306303      -2.97138121
H         1.11355778       2.40281614      -2.92318144
H         1.94493305       3.66567964       2.20459948
H         1.37918043       4.66928351       0.86508973
H         3.38809582       3.15980602       0.35096588
H         2.06009823       3.07039539      -0.81257127
H         4.25024243       0.92924376       0.25378617
H         3.22734660      -0.15600622       1.23055170
H         3.72654426       1.42497681       1.87403543
