43
strain_lig_155 ligand at complex geometry  charge=0 uhf=0  from=66|CN(C(=O)COCC(=O)N(C)c1ccccc1)c1ccccc1|nitrate
C        -2.02596131      -1.44419176       4.09978316
N        -0.90752873      -0.51726625       4.24219652
C        -0.33296248      -0.09678103       3.12197472
O        -0.67737738      -0.54053553       2.00946591
C         0.74574594       0.99282620       3.15288858
O         0.78121228       1.58591997       1.86122497
C         0.51182626       2.98029887       1.80672579
C        -0.28717844       3.21384974       0.51098600
O        -0.67123514       2.17535418      -0.07579490
N        -0.52296386       4.45657260       0.10749972
C        -0.14013116       5.60337185       0.91785688
C        -1.25814683       4.76682459      -1.08928532
C        -1.33237695       3.87736510      -2.15696869
C        -2.05989904       4.20376740      -3.29004746
C        -2.69767937       5.42765552      -3.39684870
C        -2.61005428       6.32516678      -2.34793608
C        -1.90925963       5.99597247      -1.19976772
C        -0.51113358      -0.13824488       5.55802616
C        -1.47489433       0.20380889       6.50115316
C        -1.09041260       0.50312467       7.79708481
C         0.24815642       0.48273727       8.15016293
C         1.21013306       0.15174945       7.21080842
C         0.83027308      -0.17580847       5.92115752
H        -1.75344660      -2.23248016       3.39694104
H        -2.89444925      -0.92140084       3.69382420
H        -2.26403960      -1.87724229       5.06795285
H         1.73065668       0.54422589       3.32900521
H         0.53728396       1.72652739       3.93735858
H         1.46720022       3.52284515       1.80040878
H        -0.08452559       3.30286247       2.67028713
H         0.68828069       5.37941378       1.57722845
H        -0.98575566       5.93630747       1.51945629
H         0.16716716       6.42055434       0.27022298
H        -0.83840807       2.91912762      -2.13113542
H        -2.13460775       3.48810309      -4.09352011
H        -3.26293712       5.67925059      -4.28171588
H        -3.09555811       7.28720024      -2.41914483
H        -1.89526881       6.71510260      -0.40067064
H        -2.51898995       0.23190211       6.23647567
H        -1.84295498       0.75119668       8.52960018
H         0.54225068       0.71691824       9.15877886
H         2.25418973       0.13647239       7.48101256
H         1.57086057      -0.49870558       5.20769517
