52
strain_lig_175 ligand at complex geometry  charge=0 uhf=0  from=68|c1cc2nc(c1)COc1ccccc1OCCOCCOc1ccccc1OC2|nitrate
C        -4.69006530      -0.64244246      -1.83247562
C        -3.90700277      -1.72522330      -1.45582237
C        -2.69807660      -1.48921538      -0.82422869
N        -2.26187046      -0.24421565      -0.56423902
C        -2.99827068       0.80059754      -0.96686372
C        -4.22986749       0.63886856      -1.58952218
C        -2.39752575       2.18262910      -0.79228966
O        -1.11498845       2.02599307      -0.18804395
C        -0.39670228       3.15218920       0.22693425
C        -0.63333790       4.45950344      -0.15955982
C         0.16013570       5.47416566       0.36168434
C         1.18625869       5.19079191       1.24549100
C         1.45522428       3.87868070       1.60714574
C         0.66723557       2.86436216       1.09492805
O         0.92131167       1.50650768       1.36736623
C         0.70040603       1.11798497       2.73186996
C         1.37972922      -0.24105017       2.88245830
O         0.95839605      -1.08482875       1.79155219
C         2.00128433      -1.98023569       1.36691075
C         2.80734821      -1.30800384       0.24721158
O         1.93959817      -1.05241545      -0.86469827
C         1.66230986      -2.16587746      -1.68402580
C         2.62712032      -2.63977754      -2.55241830
C         2.31730079      -3.69516461      -3.39338166
C         1.03771162      -4.22264897      -3.37716392
C         0.05898297      -3.74621883      -2.50731526
C         0.37577398      -2.72938526      -1.61985754
O        -0.40124914      -2.19927994      -0.57574563
C        -1.76317983      -2.59103486      -0.36210938
H        -5.63671739      -0.80928412      -2.32307905
H        -4.24086010      -2.72471232      -1.67790401
H        -4.78086028       1.50391728      -1.91352791
H        -3.03627272       2.82519930      -0.17257785
H        -2.31195450       2.63541274      -1.78978856
H        -1.41166466       4.69873065      -0.86538218
H        -0.02318096       6.49890123       0.07664548
H         1.77857461       5.99931441       1.64325945
H         2.27436000       3.64177948       2.26919534
H        -0.38060159       1.05627534       2.91719831
H         1.14235197       1.83947154       3.42640817
H         1.13342470      -0.71023028       3.84358044
H         2.46417334      -0.09823659       2.83097008
H         1.51498931      -2.89454557       1.00557628
H         2.64607727      -2.25666156       2.20459981
H         3.66326389      -1.91795351      -0.05808358
H         3.14746430      -0.31061123       0.56554482
H         3.59507140      -2.16327093      -2.54897365
H         3.06442754      -4.09583060      -4.06015852
H         0.81138039      -5.03504132      -4.05072111
H        -0.92836804      -4.18122206      -2.54999275
H        -1.86758991      -2.71085093       0.72884762
H        -1.99372104      -3.53952756      -0.84404446
