67
strain_lig_051 ligand at complex geometry  charge=0 uhf=0  from=66|CCCCCCCCN(C)C(=O)CC(=O)N(C)CCCCCCCC|nitrate
C        -1.54351296       0.67742702      -6.22323286
C        -2.32600698       1.95881447      -5.94443133
C        -3.77830522       1.90717030      -6.44992992
C        -4.82468063       1.69875578      -5.35087883
C        -4.64786201       0.38669191      -4.58815580
C        -5.87170461       0.03487891      -3.74212325
C        -5.83725741      -1.36352173      -3.11224915
C        -5.19004662      -1.50712492      -1.72828242
N        -3.73343605      -1.39397826      -1.66609744
C        -3.00097888      -2.01199409      -2.76208319
C        -3.04418795      -1.06946814      -0.57521095
O        -1.80583018      -1.20574882      -0.54848404
C        -3.81382977      -0.57125164       0.65381066
C        -2.92517172      -0.01001615       1.76692762
O        -1.72157974      -0.31244091       1.85073646
N        -3.49640207       0.80377353       2.66607981
C        -2.65789162       1.30045393       3.73218701
C        -4.90423943       1.21130725       2.66294693
C        -5.48661359       1.72334501       4.00250528
C        -5.58425348       3.24474191       4.21862701
C        -4.31847807       4.01456270       4.58923764
C        -4.61841326       5.46792665       4.95627260
C        -3.33286240       6.27797415       5.15258928
C        -2.70817140       6.74729937       3.83753114
C        -1.44698819       7.56705556       4.08460233
H        -0.54704280       0.73769494      -5.78336453
H        -1.43654110       0.52565217      -7.29488662
H        -2.05600934      -0.18658658      -5.80555561
H        -1.80387265       2.78794881      -6.42918666
H        -2.32869653       2.14510776      -4.86764794
H        -3.87173750       1.11307315      -7.19308804
H        -4.01277786       2.84462546      -6.95659371
H        -5.80634175       1.71096229      -5.82489805
H        -4.78454958       2.53414864      -4.64874482
H        -3.76429273       0.46827263      -3.95311614
H        -4.49855195      -0.41529222      -5.31241249
H        -6.74200856       0.06974104      -4.40061944
H        -6.02397184       0.78825010      -2.96824471
H        -5.39497491      -2.06103437      -3.81887458
H        -6.87074395      -1.67968160      -2.96118203
H        -5.45174507      -2.50888582      -1.35872512
H        -5.64225727      -0.76691373      -1.06764363
H        -3.05864069      -1.40443745      -3.65996903
H        -3.42382529      -2.99358279      -2.95573699
H        -1.95980459      -2.11275935      -2.46530322
H        -4.37270836      -1.41965039       1.06716904
H        -4.53186376       0.18262964       0.34152140
H        -1.61688130       1.20637741       3.43304413
H        -2.82953558       0.73534955       4.64645616
H        -2.88547483       2.33368130       3.93644008
H        -5.49605612       0.34192294       2.37394489
H        -5.04879123       1.99509036       1.90767306
H        -4.98185509       1.26518187       4.84781100
H        -6.51822659       1.36072814       4.02599188
H        -6.30239565       3.39777909       5.02603483
H        -6.00655690       3.70469134       3.32661981
H        -3.62953962       4.03034110       3.73913540
H        -3.82908839       3.54396060       5.44350690
H        -5.20186651       5.48848100       5.87697159
H        -5.21423179       5.93155773       4.16713723
H        -2.60318954       5.68506834       5.71317176
H        -3.55549355       7.16013795       5.75075146
H        -3.43451421       7.35215877       3.29106950
H        -2.46339117       5.88738572       3.20473386
H        -1.69595381       8.47568981       4.62374936
H        -0.96931194       7.84577546       3.14730904
H        -0.73777605       7.00348073       4.68733459
