45
strain_lig_156 ligand at complex geometry  charge=0 uhf=0  from=66|CN(C(=O)c1cccc(C(=O)N(C)c2ccccc2)n1)c1ccccc1|nitrate
C         3.37934976      -2.11440790       4.11701565
N         2.35736182      -1.15506593       3.73198285
C         1.85708193      -1.17906514       2.48412218
O         0.68992169      -0.85001427       2.19807878
C         2.71033503      -1.56502941       1.29867844
C         4.10093722      -1.63375354       1.19223174
C         4.65649907      -2.00458496      -0.02580153
C         3.84172309      -2.22814243      -1.12759931
C         2.47800360      -1.98259788      -0.97336128
C         1.54628974      -1.65498846      -2.09993095
O         0.94303357      -0.56007044      -1.95280623
N         1.46834242      -2.35722521      -3.21991398
C         0.74888124      -1.76227591      -4.33005349
C         1.94969893      -3.68129529      -3.38807625
C         2.38202517      -4.12351322      -4.63611909
C         2.79092061      -5.43788548      -4.80086888
C         2.78498031      -6.31798710      -3.73071629
C         2.36013303      -5.87250403      -2.48916597
C         1.92740354      -4.56937800      -2.31743632
N         1.94579500      -1.67631648       0.20472931
C         1.79232459      -0.33653841       4.75553516
C         2.16107706      -0.50797860       6.09226155
C         1.67080210       0.33953150       7.07243057
C         0.80178400       1.36585955       6.75017731
C         0.44181579       1.54665616       5.42491942
C         0.93133779       0.71612383       4.43527531
H         4.26583827      -1.61770642       4.51176938
H         3.64848696      -2.74924587       3.27911481
H         2.96337599      -2.76822657       4.88417597
H         4.75256989      -1.35935504       2.00582476
H         5.72923871      -2.08523417      -0.11941752
H         4.25309055      -2.50782028      -2.08497256
H         0.19457802      -0.90135702      -3.96075541
H         0.05686302      -2.48175647      -4.76173021
H         1.45871819      -1.42538111      -5.08649399
H         2.41003997      -3.46190004      -5.48832049
H         3.11286899      -5.78130155      -5.77277205
H         3.09353243      -7.34616358      -3.86569723
H         2.35150754      -6.55791082      -1.65723039
H         1.53331009      -4.24271017      -1.36662000
H         2.83437817      -1.28863265       6.40018268
H         1.95849649       0.17710727       8.09854553
H         0.39264992       2.00148906       7.51728843
H        -0.25526003       2.32551316       5.16090452
H         0.63068427       0.90041947       3.41570092
