76
strain_lig_081 ligand at complex geometry  charge=0 uhf=0  from=63|CCCCCCCCN(CCCCCCCC)C(=O)COCC(=O)N1CCOCC1|water
C         2.95098640      -7.28802427      -0.17966127
C         3.84895375      -6.07451658      -0.38391701
C         4.29721638      -5.87957475      -1.82903864
C         3.15245972      -5.73953476      -2.83041811
C         2.13699746      -4.62822030      -2.53967190
C         1.24246840      -4.41520186      -3.76142964
C         0.26722401      -3.23612076      -3.64432015
C        -1.17746359      -3.62142907      -3.30856906
N        -1.42669776      -3.84326772      -1.88278470
C        -1.46592809      -5.21328079      -1.37760625
C        -2.81971994      -5.73509524      -0.89544350
C        -3.88744553      -5.95270952      -1.96551121
C        -5.29395086      -5.95081606      -1.35581940
C        -5.48016933      -6.90001075      -0.16016899
C        -5.31671223      -6.22987888       1.20781872
C        -5.81128558      -7.10004509       2.36513476
C        -4.94938271      -8.33689327       2.59587528
C        -1.48197352      -2.77120224      -1.11917387
O        -1.18201796      -1.62936164      -1.55605251
C        -1.99720341      -2.88904738       0.31339452
O        -1.83354806      -1.66344699       1.02854373
C        -3.04014449      -1.04610355       1.47310540
C        -3.00454014       0.38328004       0.94354104
O        -2.61521077       0.53285906      -0.23135624
N        -3.40948919       1.40667621       1.70493464
C        -3.01457840       1.45569435       3.10173232
C        -1.46170848       1.63071328       3.08402656
O        -1.02211990       1.88742287       1.74839343
C        -1.69691241       3.03782602       1.22603536
C        -3.21567447       2.72217326       1.10826943
H         2.74723483      -7.44492144       0.87823660
H         3.43527326      -8.18307421      -0.56038611
H         2.00266404      -7.16730530      -0.69708806
H         4.73664414      -6.18759371       0.24407297
H         3.32922129      -5.16697555      -0.06376598
H         4.89771345      -6.73518474      -2.13595169
H         4.94031813      -4.99785725      -1.87934220
H         2.61867224      -6.68568860      -2.89572191
H         3.59540429      -5.55074244      -3.81045746
H         2.65551941      -3.69264796      -2.30660643
H         1.52518767      -4.89552256      -1.67408743
H         0.68724386      -5.33025828      -3.96761524
H         1.89198092      -4.24605301      -4.62023949
H         0.22449294      -2.72045610      -4.60319965
H         0.62731187      -2.51410160      -2.90312931
H        -1.46731132      -4.52329438      -3.84570828
H        -1.83821006      -2.80572845      -3.61618301
H        -0.76443871      -5.27964157      -0.53837135
H        -1.09639949      -5.85644589      -2.17300212
H        -3.21719037      -5.05983580      -0.14701544
H        -2.62291963      -6.68531785      -0.39601869
H        -3.71637699      -6.91134495      -2.45211304
H        -3.83573481      -5.17049485      -2.72563916
H        -5.99230886      -6.24039547      -2.13931464
H        -5.55654174      -4.93298499      -1.05399519
H        -4.79294915      -7.74150340      -0.25272658
H        -6.49279082      -7.30281195      -0.20098354
H        -5.89310363      -5.30134428       1.20619522
H        -4.27141541      -5.98038648       1.40471600
H        -6.84133874      -7.40494423       2.17534243
H        -5.81096700      -6.49446211       3.27500611
H        -5.00305280      -9.01577693       1.74945032
H        -5.29289204      -8.87446661       3.47601522
H        -3.90803527      -8.05585941       2.75229239
H        -1.45828801      -3.67945345       0.84886217
H        -3.05677947      -3.15282178       0.26766575
H        -3.11257903      -1.12303460       2.56199354
H        -3.92347616      -1.52553894       1.02874603
H        -3.32389467       0.57775352       3.66930890
H        -3.50925249       2.31352399       3.56070548
H        -0.95197834       0.71378528       3.38313601
H        -1.16499061       2.44365453       3.75829890
H        -1.23880520       3.24231722       0.25660825
H        -1.53079427       3.89782469       1.88074171
H        -3.55488880       2.68701292       0.07269128
H        -3.82470324       3.43779421       1.65937334
