133
strain_lig_042 ligand at complex geometry  charge=0 uhf=0  from=63|CCCCCCCCCCCCOc1cc(CNC(=O)COCC(=O)N(CCCC)CCCC)cc(CNC(=O)COCC(=O)N(CCCC)CCCC)c1|nitrate
C        10.73823017      -1.22132587       1.34545143
C        10.46360681      -0.88876953       2.80677590
C         9.72365022      -2.01336393       3.53629511
C         8.22029457      -2.05286787       3.25142409
C         7.59968904      -3.36440950       3.73832218
C         6.09186554      -3.44656796       3.49090200
C         5.51282930      -4.84072499       3.75946419
C         6.01205204      -5.91427864       2.79306801
C         5.24424519      -7.22566450       2.92938389
C         5.88026981      -8.33458694       2.09275758
C         5.22102987      -9.70254074       2.28818384
C         3.85441711      -9.82220249       1.60126550
O         3.96682001      -9.60917889       0.19890181
C         3.49770642      -8.49596058      -0.38768225
C         2.47345887      -7.66829459       0.08893662
C         2.11066888      -6.50900236      -0.59577549
C         0.90073758      -5.70098932      -0.14022405
N         1.08187526      -4.74239227       0.96328056
C         0.68267000      -3.47396187       0.95861742
O         0.22124125      -2.86957154      -0.01765578
C         0.79012641      -2.70456278       2.28667691
O        -0.02924363      -1.54803818       2.11757654
C        -0.61525684      -0.96104800       3.27331560
C        -1.20579513       0.39457685       2.85185374
O        -0.97333232       0.80825912       1.69482741
N        -1.93743853       1.06789662       3.72914746
C        -2.57430817       2.32079965       3.29476540
C        -4.09976304       2.28023274       3.36703038
C        -4.69561952       1.26137383       2.39879023
C        -6.17975241       1.53385429       2.18717244
C        -1.94035005       0.82534832       5.17493301
C        -2.45059738      -0.50551946       5.75022484
C        -3.80402543      -0.98165238       5.23851890
C        -4.31191844      -2.20890789       5.99814861
C         2.75219316      -6.20912094      -1.79116089
C         3.66814931      -7.09517054      -2.35586377
C         4.28420863      -6.79281381      -3.69911341
N         5.25183941      -5.72784966      -3.54799598
C         5.55218837      -4.73060977      -4.40594801
O         6.26164625      -3.80838652      -4.06421371
C         4.97197033      -4.84157091      -5.81615411
O         3.59559477      -4.45988877      -5.82948970
C         3.01742686      -4.37173691      -7.12896095
C         3.54550865      -3.18243275      -7.95307412
O         4.71640191      -3.18694551      -8.28010643
N         2.73906917      -2.13493888      -8.28813840
C         3.33518192      -1.21646132      -9.26981096
C         4.47300190      -0.32734776      -8.75284787
C         4.20313636       0.43341019      -7.45270879
C         4.60299141      -0.36340987      -6.21862714
C         1.28679289      -2.12860591      -8.27349641
C         0.68134814      -0.81269713      -7.76608172
C        -0.83426152      -0.77399358      -7.97181659
C        -1.60577510      -1.74870646      -7.08992881
C         4.04695367      -8.21503569      -1.64563417
H        11.34577642      -0.44701533       0.88548190
H         9.81410445      -1.30570962       0.78134538
H        11.27609519      -2.16327547       1.26529049
H         9.88790853       0.03851180       2.87020147
H        11.41684905      -0.71498275       3.30674178
H         9.86782798      -1.90760527       4.61346825
H        10.16465276      -2.96839419       3.24118003
H         8.04878846      -1.96709497       2.17658214
H         7.73119640      -1.20246724       3.74042596
H         7.79043219      -3.48616127       4.80693681
H         8.09627294      -4.18624480       3.22031407
H         5.88213596      -3.17005525       2.45138405
H         5.58811126      -2.71648132       4.13738274
H         4.42034105      -4.77983061       3.70387276
H         5.77329665      -5.15103586       4.76852377
H         7.06031163      -6.11211732       3.00473954
H         5.93567912      -5.55864656       1.76277984
H         4.21317098      -7.06353146       2.61013063
H         5.22900853      -7.52976743       3.97686935
H         6.93297185      -8.41827758       2.36766420
H         5.84218371      -8.06508107       1.03443170
H         5.08735619      -9.88542710       3.35785751
H         5.87657479     -10.47825648       1.88883452
H         3.16341180      -9.10979099       2.04223790
H         3.46438677     -10.83377352       1.74444323
H         1.90971308      -7.97421117       0.95525420
H         0.12860405      -6.40944141       0.18243637
H         0.49549200      -5.11889360      -0.96806735
H         1.47684227      -5.11294294       1.82041843
H         1.83759499      -2.41801198       2.44616238
H         0.43955092      -3.33021956       3.10999777
H         0.12985278      -0.79688618       4.06048027
H        -1.42063822      -1.59294221       3.66023721
H        -2.27689971       2.49192420       2.25714180
H        -2.18676432       3.14346385       3.90224830
H        -4.45562787       3.27573464       3.09803819
H        -4.45862551       2.08932296       4.37864155
H        -4.57058398       0.25242497       2.79330145
H        -4.15702846       1.31447256       1.44952430
H        -6.68705620       1.55132054       3.14569519
H        -6.62841353       0.76604807       1.56019878
H        -6.34341862       2.49988822       1.71510449
H        -2.55327302       1.62324188       5.59797118
H        -0.91156501       0.96816267       5.53640593
H        -2.53050903      -0.32734609       6.82039616
H        -1.71440830      -1.29943586       5.63171337
H        -3.71225652      -1.21851382       4.17729945
H        -4.53625272      -0.18366296       5.33965231
H        -3.73059509      -3.09643864       5.78293991
H        -5.34590403      -2.42484311       5.74320914
H        -4.27545478      -2.05175315       7.07102015
H         2.52090436      -5.29613867      -2.30761605
H         3.51181500      -6.46078412      -4.39044239
H         4.74975283      -7.69356696      -4.10875083
H         5.80814635      -5.76194087      -2.70468363
H         5.07032584      -5.87430676      -6.17288433
H         5.55456977      -4.18754846      -6.46912645
H         1.94112962      -4.35571398      -6.96153734
H         3.26424400      -5.27275044      -7.70498804
H         2.53321231      -0.59638145      -9.67266237
H         3.74700436      -1.82673516     -10.08258619
H         4.67950663       0.38836477      -9.55076012
H         5.36278903      -0.94188621      -8.61979460
H         3.15183159       0.71651016      -7.37955407
H         4.78603693       1.35441453      -7.46776669
H         4.00956977      -1.26909843      -6.13328920
H         4.48448853       0.23947243      -5.31986358
H         5.64315523      -0.66423500      -6.28222844
H         0.92549967      -2.94806606      -7.65690779
H         0.91820687      -2.30004630      -9.29433475
H         1.12117919       0.01518014      -8.32037364
H         0.92999995      -0.66158426      -6.71047911
H        -1.05218415      -0.98999185      -9.01790482
H        -1.18895788       0.23752148      -7.77336049
H        -1.36352266      -2.77793480      -7.33846593
H        -2.67531521      -1.61689624      -7.22641280
H        -1.38214288      -1.57893528      -6.03720250
H         4.75720024      -8.91889638      -2.04787587
