63
strain_lig_136 ligand at complex geometry  charge=0 uhf=0  from=63|CCCCOP(=S)(CP(=S)(OCCCC)OCCCC)OCCCC|nitrate
C         4.34393340       3.78816032       1.71635143
C         3.28798418       2.98915521       2.47768022
C         2.49692862       1.98733799       1.60994302
C         1.59848303       2.72101107       0.62827199
O         0.68600857       1.81334736      -0.08495303
P        -0.30565927       2.65144059      -1.17858791
S         0.58517724       4.20933203      -1.88584132
C        -1.88842197       2.72222964      -0.14853464
P        -2.48221480       0.57417877       2.08341062
S        -2.71676564       1.07386917      -0.02081373
O        -1.02108670       1.31816135       2.30258785
C        -0.90457617       2.03791931       3.56760717
C        -1.71008031       3.33331213       3.57881115
C        -0.94324511       4.52729515       3.00258457
C        -1.68174976       5.84866026       3.17547280
O        -1.80566598      -0.89014410       1.65720320
C        -1.05250132      -1.55808213       2.72547525
C        -1.85995694      -1.76115063       4.00104650
C        -0.97698415      -1.82526772       5.25139882
C         0.05050084      -2.95306312       5.24552490
O        -0.62665643       1.28935696      -2.02125571
C        -1.21616007       1.29154617      -3.36481231
C        -2.50456861       2.09810889      -3.49318042
C        -2.36372351       3.62678179      -3.52356978
C        -1.46328279       4.16831393      -4.62388621
H         4.93424330       4.36656791       2.42278316
H         3.90669873       4.49092524       1.01392634
H         5.02006650       3.13054061       1.17657912
H         2.59590567       3.68050253       2.96458418
H         3.79664704       2.41665680       3.25461140
H         1.88319471       1.33592259       2.25907333
H         3.21728288       1.38118351       1.05523432
H         2.19647971       3.23076055      -0.12826739
H         0.99092342       3.46292963       1.15514656
H        -2.62107230       3.37390266      -0.62090537
H        -1.68242176       3.13750344       0.84034304
H         0.16427318       2.23411916       3.68060417
H        -1.24223989       1.38157986       4.37405334
H        -1.96687258       3.56802875       4.61106802
H        -2.65641569       3.17238068       3.04708037
H        -0.74180338       4.38950663       1.93598939
H         0.02365952       4.59451306       3.50747237
H        -2.64044878       5.84424012       2.66228291
H        -1.08045780       6.65678579       2.76695186
H        -1.85201289       6.05095816       4.22773139
H        -0.14655420      -0.95399760       2.93640808
H        -0.74950511      -2.51997879       2.30318979
H        -2.46017483      -2.66566775       3.90996672
H        -2.55161227      -0.91770853       4.11394642
H        -1.63745548      -1.95896019       6.10699285
H        -0.45766429      -0.87154558       5.38246969
H        -0.40691377      -3.89630807       4.96112058
H         0.46220494      -3.06744130       6.24578835
H         0.87463164      -2.74306493       4.56576837
H        -1.43372551       0.23591827      -3.55068720
H        -0.46644947       1.62887091      -4.08211501
H        -3.19204944       1.81494651      -2.68875894
H        -2.97332747       1.77959040      -4.42530645
H        -1.99792355       4.00034776      -2.56085464
H        -3.36195097       4.04588368      -3.66111045
H        -0.43065994       3.87581738      -4.47357658
H        -1.49336660       5.25331555      -4.62016275
H        -1.78619244       3.82585847      -5.59960693
