61
strain_lig_126 ligand at complex geometry  charge=0 uhf=0  from=66|CCCCN(CCCC)C(=O)CC(=O)N(CCCC)CCCC|nitrate
C        -6.45317432      -0.20951374      -2.72687992
C        -5.68955174      -1.50395262      -2.45962810
C        -4.20375430      -1.33736782      -2.77726142
C        -3.33320858      -2.58749729      -2.61746210
N        -3.20176080      -3.03992143      -1.23666802
C        -3.60282828      -4.40761426      -0.96406407
C        -5.11281487      -4.62629712      -0.97362022
C        -5.83615162      -4.04030204       0.24040638
C        -7.34100929      -4.25567797       0.10830979
C        -2.50219550      -2.28254671      -0.39758230
O        -1.88281785      -1.27882468      -0.78065992
C        -2.51007564      -2.70667200       1.07490031
C        -2.25313290      -1.51150740       1.99375826
O        -1.70403243      -0.47699137       1.57994613
N        -2.62168644      -1.61402467       3.26484077
C        -3.01056797      -2.85605186       3.89336346
C        -1.77338265      -3.70348711       4.21897415
C        -2.12006530      -4.98133313       4.98736292
C        -2.89519189      -5.99561035       4.15144787
C        -2.38236620      -0.44679976       4.10585763
C        -3.34667706       0.70309194       3.79079356
C        -4.82002633       0.37033787       4.04420377
C        -5.14018526       0.13164301       5.51697392
H        -7.50251041      -0.34020600      -2.48182735
H        -6.38222995       0.07065154      -3.77445511
H        -6.05934206       0.60343693      -2.12046007
H        -6.10884172      -2.29427267      -3.08601892
H        -5.82208123      -1.77560914      -1.41133131
H        -3.79213656      -0.55257324      -2.14031509
H        -4.11664475      -1.02744045      -3.82173131
H        -2.33285603      -2.35043153      -2.99094592
H        -3.73703970      -3.40177379      -3.21553820
H        -3.18652896      -4.73939493      -0.01729512
H        -3.14915410      -5.02124101      -1.74402640
H        -5.29731520      -5.70063198      -1.01254457
H        -5.53456813      -4.19231875      -1.87873728
H        -5.62828208      -2.96673218       0.32251370
H        -5.48248058      -4.52814663       1.15523171
H        -7.72108771      -3.75528091      -0.77890076
H        -7.86304404      -3.86465164       0.97654044
H        -7.55860745      -5.31660587       0.02211606
H        -1.72632307      -3.45851778       1.22034575
H        -3.47030827      -3.15743915       1.32196824
H        -3.68184392      -3.42172767       3.25002700
H        -3.56038567      -2.62329352       4.80336465
H        -1.07121284      -3.10840829       4.80908848
H        -1.26655891      -3.98414529       3.29105358
H        -2.69890019      -4.72726793       5.87622689
H        -1.19008026      -5.44431810       5.32407905
H        -3.86899613      -5.60943220       3.86156464
H        -3.05649456      -6.89550635       4.73681666
H        -2.34033065      -6.27116340       3.25548854
H        -1.36323299      -0.09386529       3.91849879
H        -2.47268113      -0.74839523       5.14673401
H        -3.21102221       0.98838558       2.74420848
H        -3.06256507       1.55685232       4.41199724
H        -5.11182226      -0.50426328       3.45584009
H        -5.41746282       1.21380753       3.69100190
H        -4.63092142      -0.74650051       5.90822769
H        -6.20850927      -0.01927957       5.64023287
H        -4.84787146       0.99355987       6.11119387
