68
strain_lig_015 ligand at complex geometry  charge=0 uhf=0  from=63|CC1(C)OC(C)(C)c2nc(-c3cccc(-c4cccc(-c5nnc6c(n5)C(C)(C)OC6(C)C)n4)n3)nnc21|nitrate
C         1.43491924       1.89217670      -5.42510938
C         0.78482983       0.50855953      -5.55115006
C        -0.67220477       0.64000058      -6.01691915
O         1.50132073      -0.30188767      -6.48141378
C         2.04666240      -1.48698001      -5.90328455
C         1.50057422      -2.70398486      -6.65358037
C         3.57723023      -1.40955380      -6.01479058
C         1.59489459      -1.45078398      -4.47695019
N         1.78720731      -2.29754455      -3.48767876
C         1.34670972      -1.86962579      -2.29741209
C         1.54566053      -2.67729972      -1.07621172
C         2.06283682      -3.96758039      -1.06503475
C         2.25884615      -4.58055021       0.16262178
C         2.00403083      -3.87772177       1.32771032
C         1.53982258      -2.56538619       1.23405319
C         1.48717740      -1.61255995       2.36454240
C         1.86686734      -1.92444207       3.66751375
C         2.01312523      -0.90272638       4.58920813
C         1.79478729       0.40761046       4.19669247
C         1.38113637       0.63338031       2.88737914
C         1.19797132       1.96800737       2.29261183
N         0.77835082       1.94744424       1.02542450
N         0.57951064       3.08087010       0.37330041
C         0.86245755       4.19274479       1.00925251
C         1.40410566       4.18526018       2.31475047
N         1.54272867       3.06259019       2.98081848
C         1.77280542       5.58194479       2.68893065
C         1.07368558       6.04716040       3.97031447
C         3.29840831       5.74059373       2.80871624
O         1.32007943       6.36880486       1.58944534
C         0.74676540       5.59706929       0.53370014
C         1.53692609       5.81490252      -0.76073071
C        -0.72110915       6.00228794       0.34685300
N         1.21730605      -0.35642614       2.00735082
N         1.27484590      -2.01152649       0.04989962
N         0.83182639      -0.66102052      -2.06092139
N         0.60153409       0.17199787      -3.05745341
C         0.91439161      -0.23145984      -4.26448921
H         1.37819941       2.40968423      -6.37920625
H         0.91386285       2.47108869      -4.66576909
H         2.48372494       1.79256821      -5.15028149
H        -0.69187465       1.16973858      -6.96778576
H        -1.11449713      -0.34263972      -6.17061108
H        -1.26241476       1.19312585      -5.29141394
H         1.80699742      -2.63725006      -7.69485209
H         1.88442605      -3.62113115      -6.21783775
H         0.41365028      -2.70679816      -6.61010730
H         3.83761817      -1.37438238      -7.07008018
H         3.94566259      -0.49960541      -5.54425309
H         4.05247227      -2.27018930      -5.55494142
H         2.28798091      -4.45655502      -1.99521509
H         2.65083668      -5.58387486       0.22371115
H         2.18196143      -4.35093769       2.27658446
H         2.04899947      -2.94251935       3.95376003
H         2.34451994      -1.11417035       5.59291051
H         1.94873806       1.22891086       4.87458013
H         1.37586355       5.43456613       4.81527772
H         1.34304433       7.08403830       4.15813467
H        -0.00525291       5.98598045       3.84509299
H         3.70394175       5.11852925       3.60160324
H         3.78112768       5.48292727       1.86761273
H         3.51370110       6.78417658       3.02493802
H         2.58989285       5.58566925      -0.60707653
H         1.14172982       5.18411889      -1.55276547
H         1.44990003       6.85810954      -1.05199218
H        -1.26280700       5.91837285       1.28691911
H        -0.75962193       7.03966588       0.02392621
H        -1.20149275       5.37705411      -0.40085395
