39
strain_lig_101 ligand at complex geometry  charge=0 uhf=0  from=63|CCCCCCCCNC(=O)c1cc(Cl)ccn1|nitrate
C         2.25656749       3.46005562      -5.30653658
C         2.82946375       4.50998581      -4.36315993
C         4.34792794       4.40696193      -4.20654848
C         4.85093409       3.07601068      -3.64564018
C         4.30526784       2.66814199      -2.27406525
C         4.81730918       3.54792287      -1.12671108
C         3.96062459       4.76656344      -0.77564850
C         2.66537564       4.42492277      -0.02622349
N         1.53145027       4.16867470      -0.90371820
C         0.84884135       3.03371661      -0.94158443
O         1.14270043       2.05116715      -0.22820580
C        -0.34882501       2.92989128      -1.84730376
C        -0.76344149       3.93137234      -2.71099437
C        -1.89675095       3.73087430      -3.50322461
Cl       -2.44885183       4.94804424      -4.55523994
C        -2.55155412       2.50194367      -3.40502194
C        -2.05769054       1.56090342      -2.52037387
N        -0.99635064       1.75121404      -1.73933801
H         1.18570262       3.60251285      -5.43797337
H         2.42467190       2.46318123      -4.90730029
H         2.73218951       3.53102009      -6.28000678
H         2.34846190       4.40212035      -3.38690940
H         2.59230703       5.50530005      -4.74554749
H         4.70137435       5.22521906      -3.57708388
H         4.80401254       4.54469826      -5.18773003
H         5.93805075       3.13730679      -3.57281594
H         4.62536215       2.27967253      -4.35625372
H         4.64124380       1.64468309      -2.08525964
H         3.21345468       2.63757018      -2.28198994
H         5.81852109       3.89967510      -1.38214416
H         4.92019242       2.93691744      -0.22747034
H         3.72692080       5.34414520      -1.66824607
H         4.55541185       5.40918983      -0.12561038
H         2.39356983       5.26622390       0.61753394
H         2.81138051       3.54099024       0.59576680
H         1.28351937       4.94475600      -1.50483000
H        -0.24242224       4.86911307      -2.80134323
H        -3.42301646       2.29304840      -4.00217489
H        -2.54145489       0.59498299      -2.44163335
