78
strain_lig_133 ligand at complex geometry  charge=0 uhf=0  from=66|CCCCN(CCCC)C(=O)c1ccc2ccc3ccc(C(=O)N(CCCC)CCCC)nc3c2n1|nitrate
C         1.61062147      -2.19406159      -6.98641047
C         1.52487505      -2.62361807      -5.52674629
C         0.53030981      -3.76246027      -5.31593396
C         0.34877358      -4.11927770      -3.83622884
N        -0.23076395      -3.03638437      -3.04994158
C        -1.69814107      -2.94356782      -3.15598716
C        -2.27340509      -1.60806740      -3.64193000
C        -2.06055479      -1.30706695      -5.12366035
C        -2.87833653      -0.09111302      -5.53972908
C         0.32650466      -2.23776198      -2.14037707
O        -0.44464944      -1.50517222      -1.46817295
C         1.79290308      -2.08955434      -1.74517719
C         2.89592233      -2.92157824      -1.99556381
C         4.09984624      -2.66379753      -1.36952974
C         4.23084037      -1.59770999      -0.46027032
C         5.40385356      -1.36446611       0.31555402
C         5.42065344      -0.40728970       1.27421256
C         4.26991996       0.39681480       1.54049238
C         4.17522052       1.28672806       2.62558732
C         2.98698295       1.93232514       2.91571555
C         1.87481329       1.73059836       2.08319321
C         0.41760130       2.15707398       2.23904035
O        -0.35734632       1.53227248       1.47178009
N        -0.14318550       3.02998830       3.07176656
C        -1.60292456       3.13590798       2.97260139
C        -2.34477576       1.96495346       3.61940416
C        -3.84740033       2.07275877       3.34314715
C        -4.50277339       3.22670082       4.09608489
C         0.41906792       3.96426920       4.02688036
C         0.27441292       5.43019899       3.58943436
C         1.11939902       5.79668482       2.36818415
C         0.47921985       5.39054708       1.04131406
N         1.98969402       0.92673156       1.02063191
C         3.10911513       0.24572643       0.74670760
C         3.08748599      -0.78275444      -0.28515127
N         1.94534765      -1.03616623      -0.93964228
H         2.34269541      -1.39862648      -7.10021187
H         0.65180331      -1.82979222      -7.34893706
H         1.91559330      -3.03074819      -7.60792650
H         1.22561516      -1.76954194      -4.91430197
H         2.51457841      -2.93913693      -5.18874685
H         0.88569209      -4.65655641      -5.82842537
H        -0.43435941      -3.49467718      -5.74841909
H         1.30142437      -4.42321179      -3.41523025
H        -0.34045706      -4.96829759      -3.75800073
H        -2.11207589      -3.15119027      -2.16212549
H        -2.02068700      -3.72709913      -3.83721397
H        -1.87841186      -0.78540676      -3.04053849
H        -3.34781088      -1.65946775      -3.45800232
H        -2.37863040      -2.15771818      -5.72729256
H        -1.00352993      -1.12491628      -5.31809540
H        -3.94033089      -0.31370253      -5.51459366
H        -2.62441383       0.22115556      -6.54696755
H        -2.69618153       0.74243080      -4.86557607
H         2.84191908      -3.78391562      -2.63540393
H         4.94651821      -3.30788707      -1.54490285
H         6.25816419      -1.99440744       0.13988315
H         6.29917005      -0.26717154       1.88048796
H         5.03347626       1.41875606       3.26593832
H         2.95205777       2.54403064       3.79654988
H        -1.87918302       3.19235550       1.91528050
H        -1.90145772       4.05205861       3.46994097
H        -2.17890298       1.96925291       4.69775725
H        -1.96239748       1.02256197       3.22091895
H        -4.32420749       1.13705298       3.64174014
H        -4.00787000       2.19094974       2.26680036
H        -4.22019444       3.20476131       5.14464108
H        -5.58260697       3.13935109       4.03967866
H        -4.22162214       4.18705257       3.67485008
H         1.46909862       3.76291691       4.19815439
H        -0.12240464       3.81413876       4.96659792
H         0.57803008       6.03786433       4.44083212
H        -0.76642817       5.66628844       3.37237931
H         2.10748341       5.34063605       2.46164622
H         1.25132643       6.87789450       2.35515458
H         0.48889541       4.30935918       0.89792365
H         1.02311720       5.84926745       0.21856754
H        -0.55214717       5.73780334       0.99992858
