98
strain_lig_130 ligand at complex geometry  charge=0 uhf=0  from=63|CCCCN(CCCC)C(=O)COCC(=O)NCCCCCCNC(=O)COCC(=O)N(CCCC)CCCC|nitrate
C        -3.72112124       4.55278430       3.73144729
C        -4.82097011       3.56799716       4.10867444
C        -4.34402246       2.36244272       4.91876527
C        -3.67712807       1.26458075       4.08057058
N        -2.43638729       1.62360689       3.39553790
C        -1.39515095       2.30412283       4.16167992
C        -0.32522231       1.36231612       4.73098557
C        -0.79829022       0.50252103       5.90268749
C         0.33877976      -0.34128270       6.46616826
C        -2.13347902       1.23412189       2.16098809
O        -1.03780327       1.49164612       1.62110479
C        -3.14746325       0.39351003       1.36382046
O        -2.62107717       0.16005704       0.06985365
C        -3.12965187       1.00639524      -0.95205523
C        -2.01522039       1.14699873      -2.00224189
O        -0.86576197       1.38232291      -1.60450171
N        -2.33368764       0.99184476      -3.27978293
C        -1.44941602       1.17337593      -4.43449609
C        -0.14605035       0.37403221      -4.40271255
C        -0.33534453      -1.14982548      -4.47516940
C         0.42513127      -1.94502370      -3.39720563
C         1.80211306      -2.53516567      -3.71934620
C         2.57917862      -2.80607304      -2.42163096
N         3.27387450      -1.65291742      -1.86539440
C         3.68997902      -1.56622310      -0.59991638
O         3.42012571      -2.39224876       0.25607843
C         4.63490786      -0.41632653      -0.20234782
O         4.48609948       0.77263146      -0.94646475
C         5.42404779       1.79146284      -0.60279997
C         5.37126703       2.83155037      -1.74080496
O         5.42989183       2.39747493      -2.88054722
N         5.15062890       4.14302867      -1.53413168
C         4.89698610       4.96446909      -2.73169796
C         6.06883737       5.26612812      -3.68269043
C         6.32214427       4.27357667      -4.82489903
C         5.10350861       3.98775858      -5.69593868
C         5.19318210       4.72535450      -0.19462480
C         4.77493649       6.18683147       0.00077330
C         3.27284767       6.45591056       0.15053780
C         2.41605911       6.36973000      -1.10755108
H        -4.16562387       5.44501262       3.30163375
H        -3.16092437       4.85924373       4.61129685
H        -3.03218530       4.13440424       3.00200554
H        -5.56174471       4.09899291       4.70370431
H        -5.32899857       3.21337263       3.20991773
H        -3.69874271       2.68052152       5.73737000
H        -5.21534337       1.89229767       5.38276500
H        -3.47024286       0.41474587       4.74160327
H        -4.40144176       0.95102808       3.33141914
H        -0.91489457       3.01540168       3.48237039
H        -1.85917401       2.86074771       4.97469665
H         0.06280222       0.73066895       3.92274181
H         0.48984876       1.99641408       5.08860326
H        -1.18499444       1.15498687       6.68702113
H        -1.60500028      -0.15488865       5.57956165
H         1.12788856       0.29035003       6.86479333
H        -0.02798790      -0.96644460       7.27385021
H         0.76750048      -0.98377505       5.69795816
H        -3.20899941      -0.60279275       1.81528188
H        -4.15180415       0.83023974       1.31100974
H        -4.04576025       0.57433723      -1.38402485
H        -3.35114118       1.99859757      -0.52977191
H        -3.29728562       0.82001692      -3.52627747
H        -2.03009268       0.90669492      -5.31832621
H        -1.19225445       2.23320477      -4.50813574
H         0.42317941       0.72325233      -5.26307993
H         0.38786528       0.63095370      -3.49239530
H        -1.39594029      -1.35157082      -4.33057467
H        -0.07623634      -1.51498720      -5.46890062
H         0.53856139      -1.30704563      -2.51241566
H        -0.19600031      -2.79504660      -3.11505021
H         1.68128443      -3.48584896      -4.24421944
H         2.36262691      -1.90668797      -4.40415199
H         1.89315993      -3.17882536      -1.66457496
H         3.30549783      -3.59761446      -2.59613749
H         3.59535157      -0.95855227      -2.51660109
H         4.46392010      -0.21981955       0.86575579
H         5.65563156      -0.81918148      -0.30373361
H         5.19870683       2.16930718       0.40263079
H         6.43661816       1.36836494      -0.60985865
H         4.10873001       4.46702332      -3.30324564
H         4.50393657       5.91161409      -2.37948761
H         5.85171233       6.23614492      -4.13865909
H         6.97903019       5.37572518      -3.09215753
H         7.09455448       4.71304375      -5.45702482
H         6.70627975       3.33930739      -4.42099094
H         4.67610880       4.90816763      -6.08632671
H         5.40498422       3.36906937      -6.53551323
H         4.33355370       3.44345710      -5.15256789
H         4.54670640       4.11083500       0.44456693
H         6.21928902       4.61895088       0.17631787
H         5.24174455       6.49189724       0.94112355
H         5.21120410       6.81597949      -0.77164882
H         2.87090881       5.77974118       0.90993098
H         3.17587067       7.46615980       0.54528214
H         2.43737125       5.38057044      -1.55610271
H         1.38524098       6.60395749      -0.85247692
H         2.74139970       7.09401626      -1.84947490
