109
strain_lig_110 ligand at complex geometry  charge=0 uhf=0  from=66|CCCCCCN(CCC(C)CCC=C(C)C)C(=O)COCC(=O)N(CCCCCC)CCC(C)CCC=C(C)C|water
C         4.44453296       0.49158441       4.16736921
C         3.17255338       1.28728701       3.90235825
C         3.38359170       2.41375010       2.89150205
C         2.04056604       3.03377654       2.50869564
C         2.12064983       3.97577642       1.30820547
C         0.76018949       4.60975392       0.97151320
N         0.23067681       4.18145277      -0.32827592
C         0.53543658       5.01902124      -1.48897777
C         1.97036939       5.58032627      -1.43097312
C         2.39399457       6.51006000      -2.59806072
C         1.21200889       7.27244171      -3.19449456
C         3.21272833       5.79767675      -3.69230580
C         4.73910644       5.95112298      -3.58967967
C         5.36057566       5.13691264      -2.49250635
C         6.53983934       4.52264931      -2.49619170
C         7.49191192       4.48698612      -3.65072414
C         7.02325759       3.83591532      -1.23918328
C        -0.46498735       3.05477000      -0.30115828
O        -0.44604732       2.33358211       0.72494364
C        -1.42291065       2.58926503      -1.41708973
O        -1.45094762       1.15840538      -1.34312486
C        -2.47250653       0.43220297      -2.03734442
C        -2.31676099      -1.01726251      -1.53623934
O        -1.76754201      -1.17852196      -0.41505852
N        -2.74395357      -2.05068650      -2.23062319
C        -2.57752751      -3.37159953      -1.62002035
C        -3.57498924      -3.60581750      -0.48421497
C        -5.01297231      -3.79783997      -0.96600175
C        -5.98450531      -3.97841947       0.20476952
C        -6.29929344      -2.66709993       0.92146658
C        -7.32188398      -2.87199124       2.03008354
C        -3.24206160      -1.99713875      -3.59270348
C        -2.15533807      -2.40042283      -4.60094810
C        -2.49258560      -1.97223269      -6.03826735
C        -1.27448970      -2.18444181      -6.93855578
C        -3.73144028      -2.69475491      -6.59943893
C        -4.79875797      -1.71391411      -7.11702839
C        -5.22271543      -0.71232446      -6.08010511
C        -6.05356616      -0.92241741      -5.06309790
C        -6.36713577       0.17087141      -4.08059581
C        -6.75686982      -2.21877812      -4.79886879
H         4.28225746      -0.24435193       4.95135170
H         4.79070427      -0.02513100       3.27118331
H         5.23797301       1.15508047       4.49855720
H         2.37539077       0.62251075       3.53982994
H         2.82871760       1.72396937       4.84067906
H         4.03794641       3.16763423       3.33080729
H         3.89134224       2.02697655       2.00164128
H         1.33357476       2.22005441       2.26919103
H         1.65704877       3.58005325       3.37224328
H         2.85132185       4.75731046       1.50955364
H         2.46752989       3.40438338       0.44446948
H         0.02351886       4.31297498       1.72033455
H         0.81363116       5.69562606       0.96389529
H         0.41234751       4.43237507      -2.39912159
H        -0.17413939       5.84891461      -1.50853195
H         2.07669394       6.14887810      -0.50927061
H         2.66801815       4.74302762      -1.38126623
H         3.05940735       7.25517429      -2.15972040
H         0.54052250       6.61403018      -3.74087613
H         0.64855639       7.78351767      -2.41744143
H         1.58698772       8.02296864      -3.88393978
H         2.99755885       4.73195891      -3.69600598
H         2.91250042       6.19278746      -4.66247819
H         5.17377797       5.67332576      -4.55181458
H         4.97844091       7.00588172      -3.43107500
H         4.79561793       5.12322404      -1.56775094
H         7.05170592       4.87675202      -4.56243869
H         8.36933967       5.08992129      -3.41950249
H         7.83347564       3.46915182      -3.83637818
H         6.27944510       3.13910147      -0.85162571
H         7.94548704       3.29068406      -1.41209195
H         7.21494130       4.57172513      -0.45954093
H        -2.41195956       3.01290633      -1.19082938
H        -1.11563666       2.91448534      -2.41440354
H        -3.47552206       0.78764732      -1.76714820
H        -2.33697755       0.51560579      -3.11936144
H        -2.70417089      -4.12808132      -2.39118656
H        -1.55949897      -3.42995633      -1.22381337
H        -3.26491395      -4.49958617       0.05785700
H        -3.53177045      -2.76114742       0.20509002
H        -5.32903481      -2.92938864      -1.54974501
H        -5.06429751      -4.67683816      -1.61182813
H        -6.91851372      -4.40163057      -0.16744424
H        -5.56711938      -4.69031072       0.91998248
H        -5.38457684      -2.24951037       1.35165033
H        -6.69036923      -1.94423780       0.20217357
H        -6.94458138      -3.56894976       2.77393480
H        -7.55254941      -1.93016117       2.52097685
H        -8.24600952      -3.27541691       1.62644504
H        -4.08944583      -2.67403796      -3.67256924
H        -3.60620547      -0.99812739      -3.82470849
H        -1.22156813      -1.91307884      -4.30829793
H        -1.98600242      -3.47760403      -4.57386515
H        -2.70516407      -0.90247653      -6.01426629
H        -0.99549919      -3.23455246      -6.97861459
H        -1.49575313      -1.85663196      -7.95059363
H        -0.41476807      -1.61613651      -6.58471360
H        -3.42630757      -3.33634499      -7.42664777
H        -4.16759495      -3.33860467      -5.83622996
H        -4.38875435      -1.18696403      -7.98128894
H        -5.66621046      -2.28125278      -7.45855147
H        -4.80745468       0.28031952      -6.20187144
H        -5.81734239       1.08119389      -4.30981579
H        -7.42993545       0.40241076      -4.09972043
H        -6.12308320      -0.14431655      -3.06444897
H        -6.52246040      -2.97323916      -5.54134776
H        -6.50256845      -2.60818938      -3.81257787
H        -7.83357162      -2.05893921      -4.80695769
