138
strain_lig_056 ligand at complex geometry  charge=0 uhf=0  from=63|CCCCCCCCN(CC(=O)N(CCCCCCCC)CCCCCCCC)CC(=O)N(CCCCCCCC)CCCCCCCC|water
C        10.14243086      -3.21115663      -3.57805141
C         9.61219227      -2.09716585      -4.47110109
C         8.10108492      -2.16340718      -4.69026160
C         7.29595330      -1.86070317      -3.42758019
C         5.79360873      -1.90776362      -3.69577204
C         4.97322527      -1.60370178      -2.44047397
C         3.47785602      -1.64478139      -2.75552708
C         2.47249912      -1.51884179      -1.59465239
N         2.39405567      -0.23871591      -0.84629088
C         2.56016888       0.91057098      -1.77195040
C         2.17393866       2.17916639      -1.05847824
O         1.04559455       2.22249872      -0.42793352
N         2.89072340       3.35739878      -1.33720535
C         3.26244344       3.67571397      -2.69209211
C         4.74150492       3.40046972      -3.02571748
C         5.06879723       3.84276885      -4.44968047
C         6.42026008       3.29429810      -4.91151425
C         6.77594164       3.81623248      -6.30290320
C         7.92429336       3.04921827      -6.96583058
C         9.27477540       3.18849094      -6.26179155
C         9.60007185       2.04070837      -5.31608646
C         3.39517791       4.21477073      -0.28814174
C         2.34766164       4.64283486       0.75303100
C         2.24750052       3.75776640       1.99688207
C         3.51255259       3.76369980       2.87253995
C         4.34779938       2.48964289       2.74719283
C         5.62700695       2.50996836       3.58655913
C         5.38681120       2.60362040       5.09278900
C         6.67238039       2.36033820       5.87409061
C         3.45876081      -0.16726503       0.17947976
C         2.93373968      -0.69971293       1.49511759
O         1.74658839      -0.43262557       1.78420134
N         3.72647212      -1.36821299       2.34452736
C         5.05893526      -1.85088744       2.02636004
C         4.99103191      -3.19314272       1.28896234
C         6.35458627      -3.66959773       0.79311195
C         6.22357115      -4.97804601       0.01430536
C         7.55762698      -5.45308030      -0.55589165
C         7.46971002      -6.84143730      -1.19240147
C         6.50331185      -6.95332743      -2.37238917
C         6.87340114      -6.05242643      -3.54381852
C         3.18348194      -1.79825933       3.62482986
C         3.60266578      -0.87686775       4.77054638
C         3.21582767      -1.45613863       6.12995368
C         3.50186384      -0.47183703       7.26268543
C         3.17299675      -1.06405754       8.63179866
C         3.23356193      -0.02856969       9.75708121
C         4.60347624       0.60807636       9.98061085
C         5.68353226      -0.38388665      10.38035510
H        11.22785659      -3.17787693      -3.54330984
H         9.77371386      -3.11299066      -2.55926659
H         9.84252192      -4.18337765      -3.96257299
H         9.87793152      -1.12712018      -4.04392867
H        10.10197043      -2.16997089      -5.44453089
H         7.83571211      -3.15737822      -5.05666814
H         7.82332313      -1.44149280      -5.46260476
H         7.57228555      -0.87110706      -3.05379846
H         7.54344220      -2.58823846      -2.65290794
H         5.52640787      -2.89738713      -4.07214140
H         5.54371283      -1.18361469      -4.47542044
H         5.21397727      -2.34404457      -1.67553261
H         5.27299178      -0.61900300      -2.07385468
H         3.27352620      -2.61306945      -3.21971358
H         3.26042015      -0.88864595      -3.51058230
H         1.48549250      -1.68967044      -2.03424837
H         2.65074871      -2.31049360      -0.86034583
H         1.87773552       0.71575416      -2.60957404
H         3.58702492       0.97585383      -2.14437029
H         2.62724344       3.09913517      -3.36783469
H         3.06713522       4.73963353      -2.86578680
H         5.38098082       3.92921013      -2.31824738
H         4.94863296       2.33307590      -2.92683760
H         4.29396509       3.48252072      -5.12973043
H         5.07752426       4.93218341      -4.50387360
H         6.37172085       2.20313191      -4.93584643
H         7.19072717       3.58663856      -4.19759912
H         5.89711801       3.73557248      -6.94771705
H         7.03577396       4.87393270      -6.23648149
H         8.01244474       3.43902126      -7.98270450
H         7.66196818       1.99178991      -7.04655254
H         9.31829305       4.14013618      -5.72771660
H        10.06097450       3.22372407      -7.02121079
H        10.58573622       2.18073504      -4.87962547
H         8.87422576       1.97688496      -4.50848323
H         9.59617876       1.09299233      -5.85123340
H         4.22818596       3.72350240       0.22967690
H         3.79155302       5.10570417      -0.77819536
H         1.37438339       4.67640917       0.26273525
H         2.59573533       5.65665592       1.07311955
H         1.41108425       4.14375797       2.58393916
H         1.98593525       2.73524989       1.70869148
H         3.21981673       3.87370537       3.91662900
H         4.13165170       4.62678505       2.62047049
H         3.73306720       1.63321575       3.03671848
H         4.63848964       2.34240515       1.70262935
H         6.18704187       1.59347395       3.37896442
H         6.25034113       3.34997982       3.27323914
H         5.00285890       3.59263861       5.34493019
H         4.63671085       1.86680778       5.38873906
H         7.43292312       3.08263702       5.59031683
H         6.49544867       2.45747154       6.94209414
H         7.06133307       1.36306940       5.67952376
H         3.65963602       0.90611767       0.34197025
H         4.37088454      -0.65837823      -0.15460370
H         5.60325541      -1.97405916       2.96382685
H         5.60084970      -1.11191898       1.43455675
H         4.56731992      -3.94934347       1.95287114
H         4.31107060      -3.09511566       0.43842006
H         7.02389859      -3.81484731       1.64207090
H         6.80067313      -2.90561505       0.15118697
H         5.50993677      -4.83709958      -0.80100527
H         5.82428061      -5.75015525       0.67579708
H         8.29304972      -5.49228334       0.25024500
H         7.92061856      -4.73308743      -1.29089524
H         7.16723519      -7.56002385      -0.42718256
H         8.46765299      -7.12430348      -1.53236379
H         6.50709065      -7.99072430      -2.71300187
H         5.48710149      -6.72666847      -2.04083231
H         6.78617001      -5.00257335      -3.27537471
H         7.89687755      -6.24341877      -3.85675198
H         6.21861870      -6.24449257      -4.39124016
H         3.52771835      -2.81647380       3.82069030
H         2.09064025      -1.79061460       3.54605330
H         4.68236564      -0.71824932       4.74253440
H         3.11743292       0.09139380       4.63664372
H         2.15208797      -1.70544836       6.12731157
H         3.77067749      -2.38040001       6.30455188
H         2.90964556       0.43412487       7.11057146
H         4.55518897      -0.18999058       7.23157356
H         3.85683274      -1.88478369       8.85074046
H         2.16256216      -1.47938394       8.60571694
H         2.92536607      -0.51841593      10.68360563
H         2.51081274       0.76305036       9.54358797
H         4.91092529       1.14577798       9.07938207
H         4.50638273       1.35789197      10.77029942
H         6.60763202       0.13820018      10.61369745
H         5.37946550      -0.94688221      11.26048027
H         5.88592338      -1.09336971       9.58057208
