78
strain_lig_014 ligand at complex geometry  charge=0 uhf=0  from=58|CC1(C)CCC(C)(C)c2nc(-c3cccc(-c4cccc(-c5nnc6c(n5)C(C)(C)CCC6(C)C)n4)n3)nnc21|nitrate
C        -0.88124704       0.99822522      -5.43661508
C         0.62014978       0.68963795      -5.45997084
C         1.38166979       1.99345843      -5.18351932
C         0.99440844       0.12149466      -6.82961291
C         2.34850747      -0.56146621      -6.80169476
C         2.40107410      -1.76689094      -5.85270543
C         1.67897884      -2.95812819      -6.49392695
C         3.87394786      -2.13575132      -5.64035086
C         1.73810132      -1.45393845      -4.53885074
N         1.88776936      -2.26989230      -3.50284646
C         1.42184941      -1.87248358      -2.32330226
C         1.61701306      -2.66787721      -1.09220940
C         2.16521713      -3.94630311      -1.06438574
C         2.36119954      -4.54500865       0.16870013
C         2.07861487      -3.83931323       1.32522297
C         1.58881089      -2.53649029       1.21882703
C         1.51652695      -1.58508805       2.35093858
C         1.86117177      -1.91787646       3.65844033
C         1.98242178      -0.91199317       4.60000652
C         1.76716281       0.40405278       4.22703224
C         1.39049161       0.65271581       2.91097182
C         1.20516556       1.99827981       2.33595045
N         0.75314844       2.00433772       1.07627710
N         0.61941147       3.15501976       0.46107152
C         0.97134308       4.28134537       1.06215934
C         1.48035286       4.24922636       2.38851426
N         1.56394199       3.08355021       3.01100538
C         2.00332098       5.47588607       3.07776780
C         3.53879481       5.41838921       3.01078562
C         1.58028821       5.51789531       4.54879548
C         1.50792705       6.74897261       2.38610851
C         1.61919849       6.68172181       0.87433807
C         0.78643643       5.54457483       0.27783603
C        -0.70433314       5.91115772       0.29789684
C         1.20882724       5.32907051      -1.17806224
N         1.26199569      -0.32134304       2.00523388
N         1.31735924      -1.99871182       0.02724173
N         0.88417820      -0.66340411      -2.10738663
N         0.64308329       0.10298079      -3.13734084
C         0.98021096      -0.26746688      -4.36076692
H        -1.10700440       1.72119628      -6.21762661
H        -1.46882454       0.10342608      -5.62725200
H        -1.17790371       1.41440935      -4.47868502
H         1.15469178       2.71853290      -5.95997814
H         1.07814707       2.39331785      -4.22059133
H         2.45514278       1.82681285      -5.17166356
H         0.22641485      -0.58324314      -7.14594618
H         1.01380417       0.93410939      -7.55752444
H         2.60062942      -0.90043151      -7.80653678
H         3.10598353       0.16008663      -6.49804630
H         2.14679961      -3.18471265      -7.44929243
H         1.74639945      -3.82698834      -5.84837970
H         0.63231110      -2.72850358      -6.66754208
H         4.32383675      -2.35709062      -6.60640987
H         4.41958241      -1.30601264      -5.19487326
H         3.97173163      -3.00337453      -4.99635208
H         2.40866351      -4.44765916      -1.98505099
H         2.77372834      -5.53919777       0.24642587
H         2.25862775      -4.30187118       2.27906171
H         2.02989067      -2.94141323       3.93766215
H         2.28041078      -1.14378667       5.60960861
H         1.89289155       1.20636624       4.93374018
H         3.91457443       4.54358922       3.53229965
H         3.88931844       5.38507809       1.98340813
H         3.94089727       6.31204523       3.48182781
H         1.94592985       4.64879481       5.08586504
H         1.98871209       6.41532569       5.01000395
H         0.49685290       5.55158956       4.63240327
H         0.46920224       6.91492117       2.66664052
H         2.09413879       7.59160742       2.75355235
H         1.27647611       7.62439451       0.44825159
H         2.65904210       6.54435143       0.57991002
H        -1.06311128       6.08057581       1.30855031
H        -0.84537874       6.82480163      -0.27388358
H        -1.30027113       5.12353947      -0.15353179
H         2.25904158       5.05090802      -1.23834936
H         0.61525001       4.54875528      -1.64478368
H         1.06350942       6.25829078      -1.72301073
