89
strain_lig_026 ligand at complex geometry  charge=0 uhf=0  from=66|CCCCCCC(C)N(CCCC)C(=O)COCC(=O)N(CCCC)C(C)CCCCCC|water
C        -4.57136176      -3.27030248       4.36776940
C        -4.69302569      -1.88302222       4.98926935
C        -3.38553000      -1.44493338       5.64490925
C        -3.47032650      -0.02807854       6.20797052
C        -2.18800196       0.48097423       6.87179109
C        -1.05981257       0.88969082       5.91674477
C        -0.12114936      -0.25739007       5.50193952
C         0.76998462      -0.70540326       6.65007492
N         0.65810245       0.17410638       4.33235410
C         1.59395105       1.28372333       4.51711620
C         3.01642371       0.83282721       4.87507655
C         3.71832032       0.03915870       3.77764097
C         4.00061211       0.88819169       2.54495318
C         0.43700135      -0.27428205       3.11209605
O         0.87324891       0.29287522       2.07634447
C        -0.40837266      -1.54656349       2.88305372
O        -0.30698498      -1.80963341       1.48758792
C        -0.44895060      -3.17562785       1.10441198
C        -0.10529504      -3.21340453      -0.40506809
O         0.21035042      -2.10915586      -0.91059907
N        -0.10481410      -4.34348276      -1.08323757
C         0.51456206      -4.50405316      -2.42143321
C         1.39682648      -3.40447699      -3.01491065
C         0.66637524      -2.32862374      -3.81717019
C         1.64987882      -1.34203196      -4.43669279
C        -0.74732126      -5.60061941      -0.63549033
C        -0.21971447      -6.13895299       0.69259419
C        -2.27840916      -5.49527130      -0.66656673
C        -2.87298721      -5.25066166      -2.05947690
C        -2.64170585      -6.40616528      -3.03829452
C        -3.53312528      -6.34117407      -4.28380027
C        -3.37227132      -5.08788519      -5.14483906
C        -1.99625713      -4.95275664      -5.78695475
H        -5.50375195      -3.55318805       3.88680463
H        -3.77276496      -3.29841522       3.62229836
H        -4.34980942      -4.01414237       5.12905712
H        -4.96797469      -1.15753213       4.21694442
H        -5.49325334      -1.89137437       5.72837320
H        -3.12908293      -2.13445251       6.44988003
H        -2.59677170      -1.50959390       4.88980276
H        -3.76873106       0.66823856       5.41810535
H        -4.26219854      -0.01718690       6.95953390
H        -2.45407581       1.35927220       7.46166403
H        -1.82057047      -0.26768618       7.56820206
H        -1.50059133       1.34234946       5.02471886
H        -0.47114779       1.65470847       6.42059816
H        -0.72132390      -1.10887726       5.19399449
H         1.28121932       0.13314721       7.11037703
H         0.16325930      -1.18091134       7.41446100
H         1.50065850      -1.43111384       6.30465758
H         1.62181192       1.85192845       3.58607752
H         1.21606232       1.92581406       5.31170515
H         3.59209817       1.73921562       5.07125911
H         3.00116133       0.25000093       5.79312789
H         4.66894459      -0.31547743       4.17649056
H         3.12410896      -0.83797818       3.50698525
H         4.46562650       1.82523023       2.84577926
H         4.68045320       0.35799216       1.88541021
H         3.08581482       1.10805025       1.99331628
H        -0.02013285      -2.38639017       3.47266785
H        -1.46866218      -1.38620024       3.13742035
H         0.27030739      -3.79653802       1.65325135
H        -1.47114551      -3.51763128       1.31231782
H         1.14463836      -5.39323663      -2.31668459
H        -0.28062004      -4.74635571      -3.13260625
H         2.00263968      -2.95493439      -2.23175164
H         2.07690764      -3.90739846      -3.70697801
H         0.10525289      -2.81417589      -4.61737215
H        -0.02557128      -1.77932648      -3.17386336
H         2.37751217      -1.86003558      -5.05611734
H         1.12693464      -0.62926198      -5.06863836
H         2.18022895      -0.79263495      -3.65904677
H        -0.47391636      -6.33407644      -1.39266787
H        -0.70416472      -5.70647297       1.56004877
H        -0.42034482      -7.20469429       0.73344317
H         0.85590005      -6.00112959       0.76428349
H        -2.67641410      -6.43784693      -0.29032727
H        -2.62616878      -4.70939233       0.00563787
H        -3.95266789      -5.12646152      -1.94825519
H        -2.48064573      -4.31801702      -2.46977907
H        -1.59793386      -6.45319800      -3.34951386
H        -2.86637306      -7.34260761      -2.52594205
H        -3.32238916      -7.21694763      -4.90005166
H        -4.57524806      -6.41033275      -3.96692564
H        -4.11497812      -5.13118008      -5.94168761
H        -3.59555634      -4.20350737      -4.54575819
H        -1.77841085      -5.82032487      -6.40438862
H        -1.96095018      -4.06911448      -6.42117076
H        -1.20948928      -4.86521987      -5.03884108
