29
strain_lig_169 ligand at complex geometry  charge=0 uhf=0  from=63|O=C(c1ccccc1)c1ccc2ccccc2n1|nitrate
O        -0.93950195      -1.14533074       1.70274773
C        -2.03581500      -1.72530283       1.64093140
C        -2.42579570      -2.61237970       2.72939713
C        -1.36242711      -3.24056487       3.39552255
C        -1.59351806      -4.04480405       4.48729744
C        -2.88910651      -4.22826691       4.95020761
C        -3.93748994      -3.54957025       4.34625100
C        -3.72151989      -2.74597603       3.24309477
C        -2.94961168      -1.37343341       0.51370166
C        -4.16571928      -2.02819028       0.24703329
C        -5.03569064      -1.46613856      -0.65526744
C        -4.70943326      -0.24196115      -1.26647190
C        -5.55774454       0.41637151      -2.18209402
C        -5.19812159       1.62000315      -2.72449662
C        -3.99170809       2.24154446      -2.34551962
C        -3.14675678       1.63302310      -1.45902543
C        -3.45298286       0.35385202      -0.93793897
N        -2.58164332      -0.24567837      -0.10475956
H        -0.36336832      -3.09754022       3.00874801
H        -0.76639777      -4.51589146       4.98940078
H        -3.07850323      -4.86152887       5.80225826
H        -4.92881020      -3.63854361       4.75554134
H        -4.53694969      -2.18097504       2.81722893
H        -4.40539020      -2.95635241       0.73957737
H        -5.97433385      -1.94611878      -0.88359013
H        -6.48866424      -0.04991805      -2.46413277
H        -5.83750310       2.10540231      -3.44676776
H        -3.74180347       3.20564503      -2.76608170
H        -2.24711151       2.12484588      -1.11301849
