72
strain_lig_142 ligand at complex geometry  charge=0 uhf=0  from=66|CCN(C(=O)c1cccc(-c2cccc(C(=O)N(CC)c3cc(C)cc(C)c3)n2)n1)c1cc(C)cc(C)c1|nitrate
C         2.37747247       4.11592016      -2.48089294
C         0.99239930       4.29218633      -1.88225426
N         0.93260244       4.17934722      -0.42161514
C         0.52518955       3.00456089       0.07216201
O         0.54238726       1.98387296      -0.66612529
C        -0.10540732       2.85415751       1.43391320
C        -0.22803953       3.82680325       2.42662285
C        -0.77918143       3.45390769       3.64276280
C        -1.12933427       2.13134589       3.87208991
C        -1.06825324       1.23987699       2.80505947
C        -1.31737007      -0.21875037       2.92915335
C        -1.32982982      -0.91142373       4.14146814
C        -1.27371365      -2.29851382       4.12694377
C        -1.24057418      -2.97562661       2.92166642
C        -1.38413980      -2.22331115       1.75938962
C        -1.44841430      -2.75244600       0.35301428
O        -0.92500243      -2.01095555      -0.51837285
N        -1.99584272      -3.91127122       0.01814627
C        -1.94760682      -4.31823319      -1.38998425
C        -3.32170195      -4.29588803      -2.03808573
C        -2.79432169      -4.68143446       0.90861431
C        -2.75090559      -6.07169548       0.88414036
C        -3.51916497      -6.80369169       1.78142068
C        -3.53580217      -8.29538120       1.73463954
C        -4.27058208      -6.11761920       2.73446486
C        -4.33334697      -4.73170010       2.76225340
C        -5.11912250      -3.98438368       3.79117151
C        -3.62727915      -4.01645498       1.80022371
N        -1.37548918      -0.88520757       1.76830012
N        -0.62458034       1.63163017       1.60357184
C         1.64645071       5.16766634       0.31341565
C         2.55828796       4.72138192       1.27308534
C         3.38474571       5.61927752       1.92668830
C         4.38466085       5.15841179       2.93634850
C         3.29386304       6.97137516       1.60114211
C         2.41681058       7.43203211       0.62941292
C         2.36365863       8.88031592       0.26658515
C         1.58663701       6.51466268      -0.01678190
H         2.28208619       4.22120263      -3.55573078
H         2.78644433       3.13532104      -2.25820902
H         3.06221054       4.87496676      -2.11724860
H         0.30985715       3.54002021      -2.28623678
H         0.61552324       5.28729962      -2.12035299
H         0.10257400       4.83841343       2.25741281
H        -0.89218115       4.18919089       4.41966046
H        -1.44551067       1.81167051       4.85015781
H        -1.33847621      -0.40094272       5.08883223
H        -1.21755593      -2.85256869       5.04731082
H        -1.10481951      -4.04292139       2.87360331
H        -1.52369926      -5.32159559      -1.41993880
H        -1.27406625      -3.63077894      -1.90664424
H        -4.00499378      -4.96034854      -1.52096100
H        -3.23080628      -4.62885089      -3.06623027
H        -3.73084994      -3.29085187      -2.02395489
H        -2.12826997      -6.59578929       0.17510387
H        -2.91156162      -8.68814420       0.93465553
H        -4.55705920      -8.64187886       1.58461411
H        -3.19342526      -8.69870379       2.68558089
H        -4.84402425      -6.68444927       3.45182882
H        -5.66304252      -4.65794439       4.44579016
H        -5.82880545      -3.31888990       3.30349840
H        -4.44129834      -3.37830379       4.39521094
H        -3.73229710      -2.94087860       1.73722258
H         2.63610597       3.65736165       1.45651187
H         4.35032673       4.08064706       3.08046282
H         4.19498072       5.65226655       3.88707980
H         5.38639990       5.43668608       2.61393450
H         3.94720562       7.67285905       2.09790289
H         3.05866536       9.46468594       0.86346523
H         1.35815791       9.26528305       0.42689572
H         2.61351443       9.02415643      -0.78428269
H         0.90687369       6.87827875      -0.77304473
