137
strain_lig_034 ligand at complex geometry  charge=0 uhf=0  from=66|CCCCCCCCCCCCN(CCCCCCCC)C(=O)COCC(=O)N(CCCCCCCC)CCCCCCCCCCCC|water
C         5.81580022      -1.25306797       3.43081972
C         6.04695104      -0.44022083       2.15985799
C         6.15817425      -1.33998048       0.92351717
C         5.77797287      -0.67104704      -0.40375949
C         5.47158690      -1.72198675      -1.47885383
C         4.53172448      -1.24224230      -2.59850859
C         3.54432810      -2.35696997      -2.95369871
C         2.72846224      -2.14918317      -4.23037343
C         1.66321477      -3.24030656      -4.39873296
C         0.26012651      -2.90453427      -3.86772710
C        -0.07029673      -3.58511881      -2.53624277
C        -1.57054351      -3.82978616      -2.33975106
N        -2.38585726      -2.90782460      -1.53877912
C        -3.77926184      -3.35389481      -1.42677419
C        -4.06750149      -4.84394477      -1.18910589
C        -3.60993827      -5.37756959       0.17223222
C        -4.20463070      -6.74573664       0.52821402
C        -3.88662461      -7.16866980       1.96742996
C        -2.44836995      -7.65438541       2.17336307
C        -2.02529262      -7.65508223       3.64637644
C        -0.53738148      -7.95753583       3.80616147
C        -2.03024762      -1.67298041      -1.23021065
O        -0.93989695      -1.17325330      -1.58542198
C        -2.90813829      -0.79058616      -0.30961684
O        -2.40525055       0.55140571      -0.20724920
C        -2.82211223       1.52090087      -1.18570807
C        -1.60327992       1.93484668      -2.02823315
O        -0.48175756       1.48575714      -1.68689978
N        -1.73334031       2.65864634      -3.12702757
C        -0.67044164       2.52624573      -4.12311459
C        -0.85592003       1.20630706      -4.88271221
C        -1.92568190       1.36476716      -5.96896074
C        -2.38701150       0.04550679      -6.58351720
C        -1.32323360      -0.64626743      -7.43183285
C        -1.90713692      -1.87922961      -8.11750919
C        -0.86616979      -2.66979145      -8.90386645
C        -1.47446225      -3.93135393      -9.49950490
C        -2.72257345       3.70018963      -3.33835396
C        -2.06025378       5.09006528      -3.37611013
C        -1.26105676       5.43490895      -2.11033392
C         0.08843197       6.10973458      -2.38983125
C         1.16210914       5.11781313      -2.83903702
C         2.57667687       5.70083353      -2.81973582
C         3.62264454       4.77765330      -3.46380525
C         3.90360680       3.45086909      -2.73335845
C         5.12180795       3.47392425      -1.80234987
C         4.97960339       4.42545194      -0.61739759
C         6.11904468       4.29066551       0.39196425
C         5.99784983       5.31629621       1.51123891
H         5.70473943      -0.59606396       4.28849251
H         6.65614683      -1.91073392       3.62709877
H         4.91927277      -1.86983369       3.34120178
H         6.95481019       0.15053844       2.27189417
H         5.21803294       0.26599561       2.03073415
H         5.49419785      -2.19764364       1.07029590
H         7.17147758      -1.73138283       0.84743302
H         4.89076889      -0.04685162      -0.24518630
H         6.57431490      -0.01028152      -0.74596119
H         4.99355715      -2.57217705      -0.98163197
H         6.40293038      -2.07969524      -1.91642727
H         5.10267799      -0.96797433      -3.48328160
H         4.00394939      -0.34599877      -2.26901986
H         2.86470589      -2.53466886      -2.11108508
H         4.13613487      -3.26581302      -3.07374710
H         3.41490435      -2.19686569      -5.07307092
H         2.26586805      -1.15815587      -4.26989429
H         2.02535141      -4.13996879      -3.90226964
H         1.57761315      -3.47951587      -5.45743765
H        -0.45827314      -3.25448671      -4.60935211
H         0.12710594      -1.82604617      -3.78167170
H         0.38641671      -3.05448801      -1.69763050
H         0.37559294      -4.57919577      -2.57515293
H        -1.68507195      -4.79577898      -1.84359197
H        -2.03192006      -3.90018227      -3.33499681
H        -4.26235418      -3.06961605      -2.36767803
H        -4.23646379      -2.79868358      -0.61490600
H        -3.67314633      -5.45451757      -2.00169538
H        -5.15685951      -4.91938156      -1.23564941
H        -3.92442840      -4.66607725       0.94006799
H        -2.52221977      -5.44543725       0.18832799
H        -3.84492769      -7.51186187      -0.15947895
H        -5.28706259      -6.69146249       0.41057895
H        -4.56603099      -7.97240129       2.24462801
H        -4.09197720      -6.33551829       2.64482822
H        -1.75304585      -7.02005657       1.61305423
H        -2.34614010      -8.66721624       1.77961488
H        -2.60177435      -8.40113819       4.19524273
H        -2.24149506      -6.68012710       4.09502166
H        -0.29339467      -8.92220251       3.36735887
H        -0.26004820      -7.97906526       4.85769506
H         0.06202986      -7.19272301       3.31049980
H        -2.80328941      -1.17955830       0.71580126
H        -3.96567587      -0.78064606      -0.57848867
H        -3.23365416       2.37605134      -0.63535114
H        -3.62672641       1.13301174      -1.82093933
H         0.30529419       2.57793117      -3.63655509
H        -0.75316401       3.36011055      -4.81375578
H        -1.12964748       0.41391627      -4.17415556
H         0.08985210       0.92159501      -5.34614907
H        -1.52183602       2.00356863      -6.75760939
H        -2.80468536       1.86360306      -5.55172246
H        -3.24955348       0.25773919      -7.21847089
H        -2.71639549      -0.62736183      -5.78387147
H        -0.47921916      -0.94092514      -6.80195116
H        -0.95331202       0.05091877      -8.18672682
H        -2.70719496      -1.56696846      -8.79142761
H        -2.35556422      -2.52982990      -7.36018297
H        -0.03828694      -2.93772338      -8.24100048
H        -0.46198303      -2.04545750      -9.70226167
H        -1.86956050      -4.57325459      -8.71550959
H        -0.72920450      -4.49085851     -10.05461490
H        -2.28691626      -3.67978108     -10.17491698
H        -3.45120094       3.67427588      -2.52809735
H        -3.23131798       3.52107232      -4.28834512
H        -2.86567854       5.80828477      -3.52677858
H        -1.40955971       5.17478090      -4.24426523
H        -1.06795721       4.52107397      -1.54073937
H        -1.86129444       6.08835561      -1.47869896
H         0.43208675       6.59953972      -1.47869061
H        -0.03074256       6.88738637      -3.14265769
H         0.95323051       4.78453361      -3.85587967
H         1.12859435       4.24726954      -2.17520700
H         2.86463515       5.94128672      -1.79546628
H         2.57538909       6.63428886      -3.38440476
H         4.56078399       5.32835764      -3.55662129
H         3.28969428       4.55273094      -4.48103834
H         4.09278453       2.68159737      -3.48813377
H         3.01757579       3.14506411      -2.16184557
H         6.00491385       3.75046821      -2.37931237
H         5.29130201       2.45777815      -1.43122838
H         4.02230590       4.23992878      -0.11531608
H         4.96295481       5.45052028      -0.98553893
H         7.06914090       4.43629105      -0.12134566
H         6.12950125       3.28046390       0.81241644
H         6.01050319       6.32261339       1.10415086
H         6.82655526       5.22488159       2.20519782
H         5.07025307       5.18530485       2.06460859
