60
strain_lig_145 ligand at complex geometry  charge=0 uhf=0  from=66|CCN(C(=O)c1cccc(-c2cccc(C(=O)N(CC)c3ccccc3)n2)n1)c1ccccc1|nitrate
C        -1.23373570      -5.11829501      -3.31983201
C        -0.78124383      -3.82819225      -4.00059945
N        -0.07619895      -2.92716668      -3.09720239
C        -0.57922795      -2.10143992      -2.17767103
O         0.22998896      -1.47150103      -1.45243012
C        -2.04268435      -1.80352194      -1.91454249
C        -3.17753866      -2.31827428      -2.53924463
C        -4.42626141      -1.85872533      -2.13700340
C        -4.52896425      -0.93547003      -1.11341652
C        -3.35314439      -0.45656438      -0.52730576
C        -3.34601128       0.55229673       0.57052242
C        -4.51928444       1.05025592       1.15064020
C        -4.39979083       2.00405411       2.14365777
C        -3.14735144       2.45629645       2.53492083
C        -2.01737876       1.89865619       1.94226734
C        -0.55273800       2.17331303       2.22027548
O         0.25057446       1.55926960       1.47692404
N        -0.04533366       2.95880763       3.17064501
C        -0.74841118       3.84122514       4.09120554
C        -1.16684338       5.15679805       3.44127074
C         1.39106948       2.97605542       3.28690393
C         2.07846371       4.17899431       3.36068176
C         3.45639049       4.19022610       3.50356160
C         4.15929965       2.99990651       3.57136218
C         3.47409003       1.79819539       3.51089074
C         2.09805204       1.78119138       3.36975967
N        -2.14571990       0.96410338       0.98337542
N        -2.15900372      -0.88169355      -0.94310553
C         1.35972456      -2.95702069      -3.20719970
C         2.07662057      -1.77226132      -3.33973755
C         3.45264688      -1.80715974      -3.48626772
C         4.12144156      -3.02047932      -3.50488473
C         3.40772720      -4.19968750      -3.38653738
C         2.03168233      -4.16984728      -3.23901739
H        -1.78772138      -5.72143762      -4.03257249
H        -1.86327586      -4.91020517      -2.45784599
H        -0.38089010      -5.70931530      -2.99624205
H        -1.62048168      -3.29401275      -4.44829065
H        -0.08850143      -4.06287713      -4.81239759
H        -3.13165876      -3.05394346      -3.31877054
H        -5.31693901      -2.22733833      -2.62111661
H        -5.49373451      -0.59649191      -0.77837133
H        -5.49843798       0.71625801       0.84853114
H        -5.28442793       2.40347211       2.61473311
H        -3.09120120       3.22530795       3.28071067
H        -0.06377616       4.03542606       4.91858041
H        -1.61124601       3.32110056       4.50724447
H        -0.30068371       5.75106007       3.16982832
H        -1.74537315       5.74225972       4.14836002
H        -1.76085741       4.98244586       2.54827417
H         1.55498939       5.11795329       3.31706456
H         3.97627271       5.13266703       3.57377725
H         5.23222934       3.01128589       3.67606484
H         4.01388583       0.86812447       3.59971157
H         1.57321997       0.83751083       3.34384033
H         1.55041168      -0.82859392      -3.35796001
H         4.00198751      -0.88560997      -3.60975958
H         5.19210515      -3.05592084      -3.63103442
H         3.91258721      -5.15284099      -3.41724878
H         1.49819871      -5.10113294      -3.16660913
