116
strain_lig_076 ligand at complex geometry  charge=0 uhf=0  from=63|CCCCCCCCN(CCCCCCCC)C(=O)COC(C)C(=O)N(CCCCCCCC)CCCCCCCC|water
C        -5.01722921      -4.50612845      -4.37454031
C        -5.59027259      -4.72817638      -2.98003382
C        -5.83854615      -3.40213018      -2.26126931
C        -6.36183205      -3.59841754      -0.83723670
C        -6.79088050      -2.30031422      -0.15371254
C        -5.65794818      -1.29398027       0.05886989
C        -4.92784344      -1.38579658       1.40491865
C        -3.89590190      -2.51462668       1.49213211
N        -2.88746668      -2.24966249       2.52386997
C        -3.29733934      -2.38126243       3.92470272
C        -3.12404792      -1.06836018       4.71767392
C        -4.31048474      -0.71934898       5.62153245
C        -4.43879615      -1.65694513       6.82518048
C        -5.35261696      -1.09100513       7.91638748
C        -5.48829316      -2.03634101       9.11598070
C        -6.37497908      -3.25393313       8.84917094
C        -7.86555326      -2.93637366       8.91986398
C        -1.70115254      -1.79330117       2.15448461
O        -1.41109890      -1.49889054       0.96716829
C        -0.56477937      -1.68398390       3.16124070
O        -0.01264087      -0.38847420       3.00609665
C         1.22285673      -0.18373866       3.70911476
C         0.96472876       0.33395151       5.12729994
C         1.92648073       0.95068220       2.93965939
O         1.26543188       1.54198090       2.06506547
N         3.11576100       1.38927662       3.35879864
C         4.19846365       0.51075972       3.77922546
C         4.97032101      -0.03901371       2.56319091
C         6.29652587      -0.68173668       2.97984625
C         7.04108781      -1.38211000       1.83341367
C         6.55232621      -2.81193992       1.60025388
C         7.50612486      -3.67848996       0.77602612
C         7.62070362      -3.30227355      -0.69708004
C         6.33004983      -3.51824740      -1.48004722
C         3.38959986       2.82575743       3.28472796
C         4.30679528       3.33582850       2.18051414
C         3.74646426       3.06816605       0.78576239
C         4.24750178       4.07309210      -0.24796772
C         3.49092957       5.39505935      -0.19268910
C         3.94821908       6.35568416      -1.28607502
C         3.22038661       7.69866391      -1.22670824
C         1.74938220       7.60290761      -1.62095263
H        -4.76734681      -5.45625432      -4.83958139
H        -5.73894124      -3.99853822      -5.01013142
H        -4.11527033      -3.89615689      -4.31858327
H        -6.52496811      -5.28154380      -3.05559221
H        -4.89831815      -5.33199506      -2.38863407
H        -4.88992479      -2.85122798      -2.24417485
H        -6.55459341      -2.80869502      -2.83632287
H        -7.23209136      -4.25280073      -0.87879250
H        -5.60240762      -4.10464201      -0.24049265
H        -7.56804499      -1.83273347      -0.76029895
H        -7.23989808      -2.53037364       0.81123079
H        -6.06871077      -0.28360844      -0.02585086
H        -4.92446568      -1.41646207      -0.73426258
H        -4.37699228      -0.45416072       1.57048899
H        -5.66933225      -1.49611914       2.19808226
H        -4.36880135      -3.46928445       1.73291326
H        -3.36905866      -2.61611779       0.53776402
H        -4.35003943      -2.66111595       3.91941566
H        -2.74770574      -3.21399497       4.38380695
H        -2.24289392      -1.10361628       5.36148461
H        -2.97179915      -0.25560667       4.00553141
H        -4.15145403       0.30176419       5.98090563
H        -5.23731959      -0.72389230       5.04539756
H        -4.81647062      -2.62207201       6.49237667
H        -3.44913879      -1.81578177       7.25508818
H        -4.93843449      -0.14067418       8.26666439
H        -6.34279029      -0.89095444       7.50373061
H        -4.49064984      -2.37136074       9.41023804
H        -5.89937558      -1.47775966       9.96032540
H        -6.14162411      -3.66728599       7.86658737
H        -6.15266169      -4.02249905       9.59158900
H        -8.13450119      -2.13492800       8.23291501
H        -8.44604432      -3.82070571       8.66165041
H        -8.14872549      -2.63234194       9.92604442
H        -0.85207287      -1.87630102       4.19357639
H         0.17914061      -2.43185934       2.84012732
H         1.78347885      -1.11935718       3.72432113
H         0.21754047       1.12157938       5.07932706
H         0.60159802      -0.45005336       5.78858305
H         1.87164377       0.75059556       5.55580114
H         4.88250414       1.07921748       4.41142442
H         3.81441865      -0.32217458       4.36488326
H         4.34183261      -0.75769275       2.03223295
H         5.19568113       0.76922113       1.87258920
H         6.93395041       0.10563319       3.38499114
H         6.12819817      -1.40681936       3.77629496
H         6.94510110      -0.79503285       0.91929275
H         8.10210483      -1.42119919       2.08641047
H         6.47596945      -3.28932699       2.57849302
H         5.55452286      -2.80255736       1.15260898
H         8.49641113      -3.61346334       1.22846073
H         7.18250197      -4.72012659       0.84882181
H         7.92952232      -2.26065400      -0.77532653
H         8.40378750      -3.91540880      -1.14474475
H         5.53749903      -2.85895107      -1.12224933
H         6.49193107      -3.31206635      -2.53582322
H         5.99820778      -4.55151524      -1.38387371
H         2.41586327       3.30900369       3.18016844
H         3.81245994       3.11305273       4.25467618
H         4.40018928       4.41041542       2.33403270
H         5.30601193       2.91762416       2.28221196
H         4.02341065       2.05730579       0.47365711
H         2.65422750       3.10682951       0.81550285
H         5.31057076       4.25681392      -0.09337960
H         4.12372360       3.64065880      -1.24220669
H         2.42027585       5.20328396      -0.29292877
H         3.65233865       5.87243378       0.77360178
H         5.01888841       6.53421058      -1.17251462
H         3.79288408       5.90445154      -2.26985406
H         3.29547893       8.09904618      -0.21327815
H         3.71961878       8.39963136      -1.89930397
H         1.19372096       6.96518495      -0.93394195
H         1.29988013       8.59266983      -1.59875776
H         1.64987250       7.20350379      -2.62990834
