56
strain_lig_151 ligand at complex geometry  charge=0 uhf=0  from=63|CCOP(=O)(OCC)c1ccc2ccc3ccc(P(=O)(OCC)OCC)nc3c2n1|nitrate
C         6.22737852       1.02178401      -2.34353752
C         5.66350442      -0.10760792      -1.50287851
O         4.38213518       0.27931814      -0.92107348
P         2.99364794      -0.18752414      -1.46224723
O         1.87189010       0.69386817      -1.02879550
O         3.17574691      -0.22708808      -3.04239572
C         2.09043171       0.07325824      -3.92840579
C         2.04166133       1.53378433      -4.33726509
C         2.66263628      -1.86294503      -0.75263829
C         3.50575452      -2.97427658      -0.84672598
C         3.17175745      -4.11987852      -0.16007593
C         1.99824760      -4.15797630       0.61370568
C         1.57576628      -5.31023471       1.34221272
C         0.43134584      -5.29815413       2.07162334
C        -0.38347300      -4.13013011       2.13774387
C        -1.58548000      -4.07387511       2.86544412
C        -2.33921346      -2.92239609       2.84257575
C        -1.86646988      -1.81880767       2.12238215
P        -2.74089659      -0.20204431       1.91174913
O        -1.91695398       0.67656541       1.03233891
O        -2.98668426       0.45309660       3.29938177
C        -4.07748642       0.07773956       4.18910893
C        -5.18517532       1.11129411       4.11427993
O        -4.18242991      -0.50121079       1.31850876
C        -4.30647758      -0.76867307      -0.08695265
C        -4.59603055       0.50511103      -0.86216677
N        -0.71767451      -1.83696256       1.47323163
C         0.01193643      -2.96353667       1.44636810
C         1.22095005      -2.97688255       0.65982803
N         1.56441263      -1.86189869      -0.01259930
H         7.15630540       0.68635404      -2.79842367
H         6.42850472       1.89184423      -1.72424695
H         5.53297710       1.29481330      -3.13657519
H         6.30241926      -0.33367743      -0.64258764
H         5.53594363      -1.00208036      -2.11634982
H         1.14480539      -0.19603257      -3.43833199
H         2.26693468      -0.55619063      -4.80254000
H         2.00037433       2.17224312      -3.45877719
H         1.15135707       1.69765647      -4.94110445
H         2.91160073       1.79490451      -4.93181621
H         4.39812474      -2.92095210      -1.45227889
H         3.81676632      -4.98108142      -0.21084908
H         2.18893702      -6.19776112       1.29863801
H         0.11553567      -6.17547252       2.61650289
H        -1.91564146      -4.93246273       3.42875093
H        -3.27814533      -2.85865776       3.36921477
H        -3.62758550       0.02607906       5.18553232
H        -4.46340822      -0.90261620       3.90307816
H        -4.83615900       2.06743526       4.49415147
H        -6.02920201       0.77624207       4.71205322
H        -5.51808991       1.23217540       3.08465472
H        -5.12379100      -1.48501216      -0.18630049
H        -3.38518505      -1.22936967      -0.45561635
H        -5.56531403       0.90857518      -0.58476471
H        -4.59325223       0.28634034      -1.92676912
H        -3.83250033       1.25020952      -0.64649199
