44
strain_lig_119 ligand at complex geometry  charge=0 uhf=0  from=57|CCCCCCOP(=O)(O)OCCCCCC|nitrate
C         4.69142640      -2.48605801      -0.23833365
C         4.10169465      -3.39981185      -1.30017653
C         2.95595867      -2.75786182      -2.08583804
C         3.40802117      -1.60361213      -2.98193043
C         2.30249252      -1.08004629      -3.90768786
C         1.37789559      -0.04853650      -3.26697377
O         0.55388971      -0.62309942      -2.27019404
P        -0.99757375      -0.48847561      -2.37232726
O        -1.89424165      -0.30929747      -1.24156497
O        -0.77671006       1.10157534      -1.99755879
O        -0.52696778      -1.79646232      -1.53763103
C        -1.43917095      -2.86863968      -1.33010198
C        -0.71976361      -4.20306732      -1.48646303
C        -0.31190936      -4.51722921      -2.92930570
C        -1.50559667      -4.82734469      -3.83647060
C        -1.09250919      -5.37048171      -5.20675416
C        -0.29041946      -4.37924524      -6.03558904
H         5.44606507      -3.02557312       0.34299939
H         3.91735465      -2.13764147       0.45263086
H         5.17689382      -1.61333101      -0.68419947
H         3.72150482      -4.30384551      -0.80933910
H         4.89283514      -3.72258165      -1.98700277
H         2.18340843      -2.42137461      -1.38799468
H         2.50940150      -3.53704138      -2.71350775
H         4.23042663      -1.96381001      -3.61319531
H         3.81011910      -0.78034260      -2.38150940
H         1.71551838      -1.91776980      -4.30036615
H         2.78796113      -0.59724154      -4.76499564
H         0.75772680       0.40056171      -4.05218539
H         1.96064486       0.75718284      -2.80845319
H        -1.57015189       1.70767915      -1.93585956
H        -2.29116401      -2.79264490      -2.01310022
H        -1.81958217      -2.78659117      -0.30617007
H        -1.35780540      -5.00845969      -1.10468689
H         0.18951415      -4.18843819      -0.87305557
H         0.35935563      -5.38458227      -2.91282569
H         0.25677031      -3.67781211      -3.33988026
H        -2.11658186      -3.92854099      -3.97654997
H        -2.14523247      -5.57467010      -3.35113995
H        -1.99936520      -5.63857623      -5.76183314
H        -0.51368372      -6.29317570      -5.08238898
H        -0.82724217      -3.43159833      -6.14363844
H        -0.11249751      -4.78493891      -7.03667113
H         0.68484880      -4.17584221      -5.58354823
