89
strain_lig_113 ligand at complex geometry  charge=0 uhf=0  from=66|CCCCCCN(CCCCCC)C(=O)COCC(=O)N(CCCCCC)CCCCCC|nitrate
C        -1.06777645       1.79850370      -3.76985967
C        -0.97910104       3.26937404      -4.16206810
C        -1.74626526       4.19859203      -3.22736886
C        -3.23623634       3.86710073      -3.15117116
C        -3.57408903       2.85402134      -2.06088845
C        -3.42041880       3.48143186      -0.67839042
N        -3.58824299       2.51592781       0.40335377
C        -4.86427749       2.55895931       1.10218099
C        -6.05488172       2.04174629       0.28983513
C        -6.12699767       0.52202941       0.12693966
C        -5.27764821      -0.05672447      -1.00694062
C        -5.48291967      -1.56477492      -1.14963076
C        -4.70685724      -2.13573647      -2.32705236
C        -2.59814440       1.68451897       0.66003647
O        -1.52262856       1.68784894       0.01701617
C        -2.75154591       0.67873594       1.81086415
O        -1.59079571      -0.13827510       1.89943710
C        -0.90829271      -0.13645984       3.14753788
C         0.50941475       0.46265398       2.98608848
O         0.86536545       0.72484995       1.81950138
N         1.25580169       0.65025267       4.07373655
C         0.72598952       0.48147803       5.43605995
C         1.54295877      -0.39626293       6.39096768
C         1.39212717      -1.89809810       6.16915608
C        -0.00175427      -2.45927151       6.46774751
C        -0.01284664      -3.99055471       6.47905981
C        -1.41103944      -4.56752918       6.65154349
C         2.49743237       1.44929039       4.06537053
C         3.51948360       1.21419923       2.95326648
C         4.43255949       0.00281333       3.15613440
C         5.44111418       0.16218978       4.30330903
C         6.75624384      -0.58018072       4.04170824
C         6.58562121      -2.08709175       3.90706852
H        -0.39182139       1.21757151      -4.38530715
H        -2.06665107       1.40976295      -3.94438677
H        -0.80537866       1.65878021      -2.70981413
H        -1.36938820       3.37953102      -5.17418430
H         0.06836661       3.58441807      -4.16758902
H        -1.62410223       5.22278738      -3.58048248
H        -1.28932828       4.14886364      -2.23703002
H        -3.56655014       3.46745726      -4.10980844
H        -3.81051498       4.77614723      -2.96551755
H        -2.92375988       1.98367398      -2.11351800
H        -4.59728973       2.51350413      -2.20414977
H        -4.15099317       4.27749520      -0.54285321
H        -2.41803305       3.90781074      -0.58867365
H        -5.05311212       3.60744900       1.34657162
H        -4.78833724       2.00982739       2.03886916
H        -6.08594944       2.52516344      -0.68547740
H        -6.94424452       2.36656528       0.82875578
H        -7.16668996       0.26292184      -0.08087530
H        -5.86976351       0.04371093       1.07630217
H        -4.21199766       0.13425714      -0.84943089
H        -5.57100408       0.42039041      -1.94435963
H        -6.54705504      -1.76996665      -1.27748012
H        -5.15552213      -2.05429554      -0.23198419
H        -5.03865212      -1.69345386      -3.26084961
H        -4.84738332      -3.21002555      -2.39144629
H        -3.64731036      -1.93202562      -2.21413210
H        -3.60838601       0.02688215       1.60003650
H        -2.91090191       1.22033000       2.74983446
H        -0.82137397      -1.17874034       3.48105890
H        -1.47879735       0.44591369       3.87640802
H        -0.27724120       0.07168925       5.39674739
H         0.65979201       1.48056190       5.87542326
H         1.20627407      -0.15397776       7.39827501
H         2.60227578      -0.14625579       6.35085516
H         2.09911802      -2.39984600       6.83131210
H         1.67308320      -2.12279580       5.14241019
H        -0.72245991      -2.11099323       5.72197686
H        -0.33974790      -2.09971271       7.44191902
H         0.63307494      -4.34695025       7.28284676
H         0.40296167      -4.36268448       5.53942318
H        -1.83422511      -4.27396118       7.60614972
H        -1.37623072      -5.65191114       6.61662850
H        -2.07583922      -4.22541708       5.86141952
H         2.98591954       1.24722018       5.01624942
H         2.20997451       2.50783530       4.05401687
H         4.14128683       2.11218202       2.92388631
H         2.99844449       1.13545408       2.00072672
H         5.00060229      -0.13804619       2.23320585
H         3.82835250      -0.89087980       3.31952318
H         5.01907171      -0.19915679       5.24400355
H         5.67568087       1.22082156       4.43452328
H         7.43869547      -0.37311328       4.86789399
H         7.21710615      -0.18735849       3.13239989
H         6.12141233      -2.49989498       4.79794958
H         7.55107652      -2.56707442       3.77906064
H         5.97001317      -2.33589136       3.04622731
