102
strain_lig_003 ligand at complex geometry  charge=0 uhf=0  from=63|CC(C)(C)c1cc(-c2cc(C(C)(C)C)cc(-c3nnc4c(n3)C(C)(C)CCC4(C)C)n2)nc(-c2nnc3c(n2)C(C)(C)CCC3(C)C)c1|nitrate
C         2.90298182       0.63009041       6.58448151
C         3.18606269      -0.61959940       5.73861383
C         2.70553719      -1.84039274       6.53340028
C         4.70269501      -0.69237267       5.51240406
C         2.48454332      -0.54956008       4.39062278
C         2.62415741      -1.48912577       3.36219252
C         2.01986925      -1.28046760       2.11727426
C         2.10962528      -2.22157835       0.96494967
C         2.85680593      -3.40896288       0.95743572
C         2.89186104      -4.21854007      -0.17942960
C         3.68584313      -5.50375811      -0.33292114
C         2.72607249      -6.65345274      -0.68321089
C         4.67874282      -5.31551191      -1.49355516
C         4.46821278      -5.88047740       0.92534965
C         2.15046681      -3.77746176      -1.27502057
C         1.42868329      -2.59812351      -1.19503214
C         0.65576739      -2.10481581      -2.35330585
N        -0.09283245      -1.02554947      -2.12181721
N        -0.77739391      -0.49318329      -3.10435711
C        -0.74391146      -1.03059981      -4.31250836
C         0.04710628      -2.18872981      -4.54129721
N         0.74314561      -2.70236012      -3.53738227
C         0.12533006      -2.86561630      -5.88226673
C        -0.73717585      -4.14001581      -5.82692455
C         1.57596505      -3.26201592      -6.18503840
C        -0.38899954      -1.92452979      -6.98408642
C        -1.68931274      -1.22195033      -6.60576550
C        -1.52986679      -0.32038386      -5.37581242
C        -0.75677619       0.96113751      -5.72833918
C        -2.90114768       0.07180598      -4.81346399
N         1.39447969      -1.83354301      -0.09926830
N         1.28342190      -0.18845879       1.86019453
C         1.08174413       0.66758384       2.85932223
C         0.17885232       1.80946527       2.63082352
N        -0.56421765       1.82473036       1.52183972
N        -1.28965736       2.88775238       1.26367178
C        -1.35094796       3.89328110       2.11914136
C        -0.70536527       3.76766851       3.37556635
N         0.09481402       2.73868370       3.57693954
C        -0.83707945       4.76431325       4.48689239
C        -1.11334197       4.04575113       5.81355020
C         0.51956786       5.48386610       4.58699897
C        -1.96355272       5.76062988       4.18156048
C        -1.94955964       6.22967548       2.72840295
C        -2.17852182       5.08435298       1.73141798
C        -3.64573326       4.62731570       1.73836563
C        -1.80509775       5.52465928       0.31036553
C         1.65322910       0.52677629       4.11335624
H         3.45378056       0.57488361       7.52058135
H         1.84751713       0.71134729       6.83543113
H         3.22323471       1.53557160       6.07328262
H         3.21873899      -1.86980288       7.49359050
H         2.91311960      -2.76748257       6.00831477
H         1.63416127      -1.77596962       6.71566801
H         5.21104757      -0.69716704       6.47451000
H         5.04469061       0.17646115       4.95235509
H         4.98845770      -1.59239575       4.97643185
H         3.20278827      -2.38669744       3.51896276
H         3.41170778      -3.71076880       1.83131853
H         2.17654314      -6.45670535      -1.59951460
H         2.00796716      -6.81870441       0.11654319
H         3.29191994      -7.57102174      -0.82949281
H         4.16987082      -5.08796433      -2.42574159
H         5.25038163      -6.22827532      -1.64466907
H         5.37473415      -4.50792042      -1.27962733
H         3.79939996      -6.05358588       1.76554046
H         5.18528180      -5.10506066       1.18603226
H         5.02315614      -6.79958339       0.74618992
H         2.11140696      -4.32252391      -2.20177078
H        -0.37531758      -4.81899657      -5.06022440
H        -0.69428438      -4.64728879      -6.78807651
H        -1.77631247      -3.91079676      -5.60783255
H         1.95598307      -3.95351398      -5.44074241
H         2.22224296      -2.38801328      -6.19442743
H         1.62878419      -3.73697292      -7.16117466
H        -0.54336705      -2.50478254      -7.89603996
H         0.36966523      -1.17286971      -7.20429070
H        -2.45440666      -1.97269495      -6.40704820
H        -2.03894395      -0.61423309      -7.44266275
H         0.24152864       0.73752965      -6.09481145
H        -0.65636269       1.59713770      -4.85317456
H        -1.29211209       1.51113996      -6.49782415
H        -3.46904357      -0.80787901      -4.51946708
H        -3.46761133       0.61077241      -5.56734547
H        -2.78793400       0.70836208      -3.94090770
H        -0.32100349       3.34275258       6.04819247
H        -2.04889030       3.49363033       5.77502678
H        -1.17896208       4.77689196       6.61474524
H         1.31121686       4.77004441       4.79555917
H         0.48585351       6.21928030       5.38633713
H         0.76799838       5.99156460       3.65938620
H        -1.85635345       6.62132971       4.84481384
H        -2.92944762       5.30254468       4.39725051
H        -0.98876459       6.70130809       2.52069500
H        -2.72460948       6.98345425       2.57702820
H        -3.93886694       4.25074092       2.71510671
H        -3.78582079       3.83200584       1.01192391
H        -4.29496556       5.45810117       1.47585171
H        -0.75754761       5.81337924       0.25085042
H        -2.41331397       6.37586628       0.01604650
H        -1.97754691       4.71637047      -0.39453935
H         1.42651146       1.27759404       4.84605095
