84
strain_lig_158 ligand at complex geometry  charge=0 uhf=0  from=63|Cc1cc(-c2cc(C)cc(-c3nnc4c(n3)C(C)(C)CCC4(C)C)n2)nc(-c2nnc3c(n2)C(C)(C)CCC3(C)C)c1|nitrate
C         3.86066716      -5.31191033      -0.38751107
C         3.01303632      -4.08252235      -0.31384786
C         3.02869687      -3.22030511       0.77893634
C         2.22997086      -2.06999247       0.80766292
C         2.22875943      -1.10026517       1.95092440
C         3.01501834      -1.26346022       3.09541034
C         2.97870565      -0.33333862       4.13184913
C         3.83564987      -0.44096333       5.34921489
C         2.10787443       0.74377045       3.99127999
C         1.35624408       0.85425574       2.82887108
C         0.40696862       1.97013414       2.60578147
N        -0.27075315       1.90476293       1.45907066
N        -1.15445444       2.82935119       1.17205396
C        -1.35735721       3.84708437       1.99163451
C        -0.59546050       3.92773061       3.18706018
N         0.26312252       2.96062677       3.48278478
C        -0.73732647       5.07798405       4.13982632
C        -1.50931229       4.57982452       5.36911729
C         0.64447733       5.57088718       4.58160601
C        -1.48797888       6.24748806       3.49280968
C        -2.71906938       5.80878242       2.72044334
C        -2.36712079       4.87524718       1.55941219
C        -1.76641832       5.68073642       0.39737474
C        -3.65148772       4.20461092       1.05756483
N         1.43152899      -0.03360728       1.82527915
N         1.41178997      -1.78143676      -0.21517966
C         1.39513372      -2.59772733      -1.28442794
C         0.50371840      -2.18020423      -2.39474599
N        -0.14363110      -1.03461168      -2.18532916
N        -0.94168025      -0.56100093      -3.10923021
C        -1.10801611      -1.20647240      -4.25276853
C        -0.41434039      -2.42820387      -4.46215799
N         0.39143588      -2.89366726      -3.51416260
C        -0.53147436      -3.19746723      -5.74771115
C         0.76661277      -2.98145366      -6.53838146
C        -0.69542413      -4.68988581      -5.44895438
C        -1.73149820      -2.72476213      -6.57602653
C        -1.84407203      -1.21267936      -6.64511688
C        -2.04151818      -0.58456674      -5.26165445
C        -1.78976799       0.92450509      -5.37541881
C        -3.49256679      -0.78632531      -4.79880808
C         2.17219733      -3.74220863      -1.37162543
H         4.47105648      -5.45092176       0.50026725
H         4.52680168      -5.26330286      -1.24945117
H         3.24324693      -6.20096802      -0.51879217
H         3.67293738      -3.46702353       1.60451636
H         3.66353511      -2.11509444       3.19705676
H         4.47278580      -1.31725828       5.32169578
H         3.22928013      -0.48231206       6.25246791
H         4.47128675       0.43829901       5.44538864
H         2.02119955       1.48292510       4.76963368
H        -0.97025222       3.76846613       5.84793478
H        -2.49599612       4.22308242       5.08799927
H        -1.62244366       5.40302541       6.07085239
H         1.20404794       4.77714395       5.06584310
H         0.51937534       6.39749946       5.27776430
H         1.21451610       5.92400232       3.72452996
H        -0.80630819       6.76780619       2.81995501
H        -1.78397672       6.94150663       4.28085809
H        -3.22716258       6.68922649       2.32361436
H        -3.41266009       5.29446683       3.38530753
H        -0.84566186       6.17705553       0.69043126
H        -2.48418826       6.43858491       0.09170678
H        -1.55704208       5.03559837      -0.45093637
H        -4.11968156       3.61573214       1.84405974
H        -3.45317617       3.55892178       0.20685874
H        -4.35040626       4.98079416       0.75083179
H         1.61759264      -3.33432150      -5.96436169
H         0.91464981      -1.92987152      -6.76694783
H         0.70825682      -3.53461172      -7.47263286
H         0.14973434      -5.05938448      -4.87731765
H        -0.76518548      -5.23895423      -6.38546302
H        -1.60439899      -4.86034059      -4.87591478
H        -2.63991652      -3.13486376      -6.13576261
H        -1.63471838      -3.12633424      -7.58596110
H        -2.68908263      -0.94303696      -7.28229801
H        -0.94412981      -0.79086159      -7.09223898
H        -0.77081701       1.12743498      -5.69751886
H        -1.96087445       1.43370356      -4.43234780
H        -2.47003186       1.33730564      -6.11850201
H        -3.74296200      -1.83895130      -4.70430255
H        -4.16266772      -0.34227296      -5.53297447
H        -3.65484505      -0.30123562      -3.84147470
H         2.10198991      -4.34797937      -2.25889638
