137
strain_lig_045 ligand at complex geometry  charge=0 uhf=0  from=66|CCCCCCCCCCN(CCCCCCCCCC)C(=O)COCC(=O)N(CCCCCCCCCC)CCCCCCCCCC|nitrate
C        -1.68901164       2.33064938      -6.26690668
C        -0.75700696       1.18445910      -6.63748603
C         0.71162505       1.57531850      -6.49456710
C         1.64102523       0.45485587      -6.95598975
C         3.10857419       0.87722705      -7.03408632
C         3.70896345       1.29967897      -5.69290447
C         3.74855754       0.15737652      -4.67872301
C         4.51615689       0.50556468      -3.40136147
C         3.73874086       1.47648810      -2.51107252
C         4.47981796       1.71389211      -1.19247953
N         3.69462299       2.49735841      -0.22888980
C         4.32175804       3.69042580       0.31573988
C         5.43769038       3.34960623       1.32454175
C         5.52023865       4.34226097       2.48781986
C         4.50519892       4.12276413       3.61975544
C         3.31017724       5.07281855       3.58783732
C         2.30972694       4.75713774       4.69875664
C         1.10267684       5.69043621       4.63946304
C         0.10741396       5.48797533       5.78429477
C        -0.74735528       4.22255348       5.67339349
C        -1.75111170       4.28752634       4.52614993
C         2.60391789       1.93932568       0.26749301
O         2.25543442       0.77581644      -0.03175368
C         1.71772684       2.69509852       1.26891740
O         0.45474439       2.02683850       1.37066247
C        -0.64009623       2.79434886       0.87603871
C        -0.46682559       2.99268503      -0.64028428
O         0.17794666       2.10468678      -1.23423263
N        -0.98897254       4.04700510      -1.24396501
C        -1.57914463       5.16444792      -0.51813340
C        -0.49276010       6.00792376       0.15863180
C        -0.98334042       7.38897998       0.58191703
C         0.02985129       8.06408538       1.50854772
C         1.43534951       8.12593065       0.90770145
C         2.37992670       8.98350412       1.74484476
C         3.74352830       9.18389162       1.08313099
C         4.66857249       7.97092658       1.16563980
C         6.03173391       8.27645639       0.54493075
C         7.01366520       7.11554848       0.65823148
C        -0.95129648       4.14631583      -2.70404717
C        -0.04371082       5.26719807      -3.22011129
C         1.43631979       5.00275629      -2.94430112
C         2.31130211       6.22676236      -3.22257776
C         3.77671800       6.00497723      -2.83449502
C         4.56069332       5.17440709      -3.84986529
C         5.97493317       4.85400608      -3.36937668
C         6.73203931       3.96478108      -4.35221793
C         8.12352699       3.58816819      -3.84866851
C         8.85656754       2.69171798      -4.83956894
H        -2.72499359       2.04101585      -6.41857670
H        -1.48282081       3.20412376      -6.88175718
H        -1.56221722       2.60281759      -5.22118889
H        -0.94580596       0.88583079      -7.67029353
H        -0.96974606       0.32872860      -5.99378195
H         0.91291203       1.81839552      -5.44849794
H         0.90694924       2.46976757      -7.09217811
H         1.32970425       0.13344566      -7.95099933
H         1.53833840      -0.40616300      -6.29280151
H         3.20315425       1.71167216      -7.73387997
H         3.69469522       0.04379804      -7.42853574
H         3.13705031       2.13972679      -5.29673587
H         4.72933366       1.65050071      -5.86677068
H         4.22639644      -0.70315006      -5.15417348
H         2.73137493      -0.13519022      -4.40920720
H         5.49007354       0.92674637      -3.66595431
H         4.69058562      -0.41425038      -2.83850830
H         2.75688467       1.03879518      -2.30303008
H         3.59817472       2.42635900      -3.02730570
H         5.40892947       2.25095243      -1.38086303
H         4.71708918       0.74571195      -0.73810622
H         3.57216664       4.31276605       0.80123236
H         4.73620504       4.26975601      -0.51104375
H         6.40532336       3.34055873       0.81885194
H         5.27250041       2.34883909       1.71782621
H         5.41326202       5.35253324       2.09739611
H         6.52094364       4.25902665       2.91018560
H         5.00512905       4.28290251       4.57558903
H         4.16596597       3.08391082       3.62393851
H         2.80221053       5.03524992       2.61900267
H         3.67361051       6.09398756       3.72235080
H         2.80552707       4.86889734       5.66406884
H         1.98477978       3.71644259       4.61546836
H         0.59258872       5.55997818       3.68117718
H         1.46293409       6.72106753       4.67581067
H        -0.56138094       6.35093935       5.81832349
H         0.65655872       5.46145646       6.72778280
H        -1.29896207       4.10466091       6.60803001
H        -0.10585271       3.34473121       5.55801272
H        -2.35893068       5.18464961       4.61336388
H        -2.41311229       3.42442295       4.54158355
H        -1.24603078       4.30855182       3.56243508
H         1.58274206       3.74243835       0.97962874
H         2.18233169       2.64354290       2.25976717
H        -0.73024372       3.71877643       1.45512086
H        -1.53179944       2.17481950       1.04382887
H        -2.31742643       4.80274652       0.20377922
H        -2.10906401       5.78792025      -1.24016645
H         0.32747610       6.13112851      -0.54552691
H        -0.10177460       5.50163207       1.04530047
H        -1.94183657       7.30209057       1.09601599
H        -1.13669804       8.00501961      -0.30454379
H         0.06436427       7.52942284       2.45998379
H        -0.31095391       9.07847514       1.72019083
H         1.36953743       8.54780361      -0.09766831
H         1.85176783       7.11934426       0.82464358
H         2.50974471       8.52982112       2.73018853
H         1.91737062       9.96055246       1.89003460
H         4.24259349      10.02308722       1.56784676
H         3.59521802       9.45507883       0.03575042
H         4.21755066       7.11590464       0.65320733
H         4.80628046       7.70207935       2.21634520
H         6.45757243       9.14811158       1.04447814
H         5.89786197       8.53335994      -0.50789886
H         7.18989725       6.86229587       1.70212488
H         7.96785638       7.38638042       0.21324489
H         6.63707312       6.23367193       0.14049280
H        -1.97774598       4.32612791      -3.04375456
H        -0.61479734       3.18079454      -3.08603299
H        -0.35104862       6.21452855      -2.77348230
H        -0.20111432       5.34570081      -4.29679612
H         1.76318876       4.16359267      -3.55786221
H         1.56400740       4.70389944      -1.89843670
H         1.92220071       7.07234552      -2.64859056
H         2.25136150       6.49250259      -4.27861313
H         3.80282638       5.51587781      -1.85649651
H         4.26606767       6.97462642      -2.72454286
H         4.61905459       5.72630808      -4.78872072
H         4.03421818       4.24113967      -4.05559389
H         5.92604420       4.34470713      -2.40101148
H         6.52584434       5.78443281      -3.22001781
H         6.82482618       4.48146993      -5.30854352
H         6.15682038       3.05245614      -4.52636772
H         8.04157107       3.07130033      -2.88834618
H         8.70704848       4.49480092      -3.68275036
H         8.31384981       1.75987590      -4.99211479
H         9.85345235       2.45078165      -4.47690456
H         8.95456011       3.18970142      -5.80144543
