83
strain_lig_061 ligand at complex geometry  charge=0 uhf=0  from=66|CCCCCCCCN(CCC)C(=O)COCC(=O)N(CCC)CCCCCCCC|water
C         1.47634420       3.57281907      -8.64314752
C         0.05264060       4.08392125      -8.82441615
C        -0.35489014       5.06367289      -7.71822394
C        -1.19180379       4.37772690      -6.64078176
C        -1.52079004       5.29326502      -5.45260748
C        -2.84822937       4.96744653      -4.75895748
C        -2.81073587       3.84193513      -3.72218042
C        -1.94135385       4.21012879      -2.50959336
N        -2.30852001       3.57776835      -1.23953876
C        -3.08001463       4.34525289      -0.25346330
C        -4.40641556       3.70409166       0.15878698
C        -5.49128950       3.81063702      -0.90317864
C        -1.79731618       2.41446152      -0.88240445
O        -1.90302814       1.89530960       0.25468022
C        -1.00091758       1.62094958      -1.93564404
O        -0.94383689       0.23973441      -1.56812538
C        -2.04986790      -0.52235051      -2.07083557
C        -2.63195656      -1.41274487      -0.95947994
O        -2.40275868      -1.09672554       0.23362733
N        -3.37817709      -2.44147341      -1.30432806
C        -4.07547952      -3.21861205      -0.28141453
C        -5.43475886      -2.60441517       0.06168036
C        -6.20246454      -3.54154323       0.98442620
C        -3.62630782      -2.80162118      -2.69509796
C        -2.48319107      -3.62655882      -3.31339807
C        -2.54118489      -5.11479092      -2.95902306
C        -1.37040261      -5.91606670      -3.55350138
C        -0.27098219      -6.24054953      -2.53842071
C         0.39204499      -4.98953184      -1.96271969
C         1.51986577      -5.29128658      -0.97026002
C         1.03869472      -5.71622471       0.41367323
H         1.74417786       2.86819923      -9.42473773
H         1.60765829       3.09763735      -7.67089327
H         2.16597553       4.40962976      -8.71236238
H        -0.65692093       3.24921128      -8.85081995
H        -0.00617701       4.58068161      -9.79043691
H        -0.94143405       5.88436382      -8.13332532
H         0.54645000       5.50606921      -7.28414731
H        -0.66824567       3.48640023      -6.29209844
H        -2.11206776       4.04493657      -7.11793690
H        -1.58882858       6.31928572      -5.80330073
H        -0.70534132       5.26093244      -4.72704499
H        -3.58017589       4.68107877      -5.52057468
H        -3.22153042       5.86554179      -4.26026518
H        -2.46061611       2.92118083      -4.19749695
H        -3.83485233       3.67631203      -3.39003135
H        -2.00157293       5.28915610      -2.35923278
H        -0.89441980       3.97137245      -2.70810596
H        -3.27828344       5.33165993      -0.66532167
H        -2.45178486       4.45665057       0.63328512
H        -4.75289469       4.22024582       1.05574936
H        -4.23390330       2.66199946       0.42617110
H        -5.62365144       4.84183534      -1.21469356
H        -6.44165174       3.47311959      -0.50110310
H        -5.26869347       3.21090552      -1.78160208
H         0.03846421       1.97560048      -1.94824301
H        -1.43161253       1.73338767      -2.93585324
H        -1.70260054      -1.10713217      -2.92821075
H        -2.86042254       0.14626571      -2.38641826
H        -3.45326487      -3.26695042       0.61560487
H        -4.22486257      -4.22756775      -0.66658933
H        -6.00617591      -2.45060747      -0.85556921
H        -5.28867722      -1.63454581       0.54070979
H        -6.39191863      -4.48806357       0.48613613
H        -7.15752889      -3.10754579       1.25942493
H        -5.64576624      -3.73571907       1.89768864
H        -3.79633145      -1.88836939      -3.26663908
H        -4.55156874      -3.37574498      -2.73021868
H        -1.52283254      -3.20838087      -3.00659766
H        -2.55642177      -3.52764642      -4.39727020
H        -3.47910031      -5.51219560      -3.34398377
H        -2.54935480      -5.24739256      -1.87603495
H        -0.94014811      -5.37236040      -4.39685084
H        -1.74814332      -6.86079673      -3.94398145
H         0.48359620      -6.85246213      -3.03263856
H        -0.69727392      -6.83612093      -1.73006305
H        -0.38544662      -4.40145866      -1.46956006
H         0.80045882      -4.40877280      -2.79468833
H         2.16329342      -4.40947183      -0.87000740
H         2.13898628      -6.08919706      -1.37843406
H         0.48803476      -4.92284293       0.92826961
H         1.88888400      -5.99176024       1.03316608
H         0.39018582      -6.58383073       0.34626460
