169
strain_lig_022 ligand at complex geometry  charge=0 uhf=0  from=63|CCCCC(CC)CN(CC(CC)CCCC)C(=O)CN(CC(=O)N(CC(CC)CCCC)CC(CC)CCCC)CC(=O)N(CC(CC)CCCC)CC(CC)CCCC|water
C         3.46590105      -5.71312343      -5.42406413
C         2.55678313      -4.51916093      -5.69576197
C         3.36693687      -3.22253993      -5.75487888
C         2.48887625      -1.97133910      -5.67657055
C         3.27221973      -0.68616530      -5.38570144
C         4.14502652      -0.21258509      -6.56854125
C         5.51901779      -0.86310896      -6.67590020
C         2.40919636       0.55543696      -5.03949223
N         1.17073755       0.42379027      -4.29021621
C         0.03774156      -0.03957184      -5.08962384
C        -0.68446002       0.95692893      -6.04219900
C        -1.22710989       0.08407776      -7.19255915
C        -2.28139776       0.74284377      -8.07422266
C         0.11877377       2.10853250      -6.65670313
C         0.61296314       3.19319579      -5.70132196
C        -0.51551719       3.88972620      -4.94494527
C        -0.01748311       5.19013044      -4.32900144
C         0.99293136       0.74381859      -3.01157652
O        -0.09468538       0.59456395      -2.42116072
C         2.14850726       1.38161171      -2.21241662
N         1.61436586       1.87899477      -0.93181867
C         0.85829652       3.12522312      -1.19491586
C        -0.34630935       3.29769054      -0.25826529
O        -0.99055191       2.28357384       0.06557708
N        -0.70625675       4.51807185       0.13847688
C        -0.32842400       5.73773049      -0.56890364
C         0.49659503       6.76797113       0.21329089
C         1.87256454       6.18911920       0.57087091
C         2.55536209       6.98133937       1.68019492
C         0.62853254       8.04223094      -0.63896478
C        -0.44574266       9.11050233      -0.40788810
C        -1.89098601       8.75567806      -0.76349234
C        -2.10903473       8.45816610      -2.24271701
C        -1.86527449       4.64944778       1.02924670
C        -1.62622836       4.30066814       2.50539165
C        -0.63211258       5.27013032       3.15477221
C        -0.48297667       5.07403717       4.66091605
C        -2.97053140       4.27389204       3.25737310
C        -3.74023889       5.59695502       3.38510190
C        -4.75441195       5.86881215       2.27201802
C        -5.75315159       6.94017121       2.69472053
C         2.67099832       2.10686636       0.07024538
C         2.09946637       1.89052689       1.48015451
O         0.96038733       1.39022505       1.56644941
N         2.79896556       2.20841140       2.57014184
C         2.03577043       2.25278183       3.82796351
C         2.11962805       1.11238983       4.86722289
C         1.02217601       1.39341751       5.90833380
C         1.15555030       0.51513410       7.14926018
C         1.93548923      -0.29098534       4.27626261
C         3.26151757      -1.03912359       4.09763707
C         3.76552498      -1.63205083       5.41640787
C         5.04105183      -2.44361503       5.22469411
C         4.20897440       2.61036678       2.48570943
C         4.73400218       3.59769458       3.54113076
C         5.85176384       4.47130401       2.93790950
C         7.05805103       3.71999441       2.38151147
C         5.20961336       2.86933465       4.80721769
C         4.98650561       3.66199720       6.09312103
C         5.29631971       2.82178211       7.33170653
C         5.11464023       3.62535350       8.61263115
H         2.92643389      -6.64870864      -5.53417204
H         3.87842497      -5.67168010      -4.41655425
H         4.29777929      -5.72271162      -6.12120152
H         1.79437267      -4.44660536      -4.91373961
H         2.03222776      -4.67164909      -6.63924208
H         3.93724913      -3.22384905      -6.68033226
H         4.07906455      -3.20983570      -4.92895001
H         1.77003164      -2.13131114      -4.86714180
H         1.93933450      -1.87048783      -6.61364176
H         3.92700183      -0.89370695      -4.53438432
H         4.31749936       0.86099842      -6.45652668
H         3.59939095      -0.35481889      -7.50306643
H         6.02866676      -0.84039907      -5.71526906
H         6.12263296      -0.30404730      -7.38669997
H         5.46741800      -1.89049364      -7.01777539
H         2.12584260       1.00250658      -5.98710293
H         3.07164877       1.24503086      -4.52192347
H        -0.70994765      -0.43912648      -4.40173932
H         0.40513026      -0.85375900      -5.70782941
H        -1.52485391       1.40229159      -5.50549628
H        -1.65431155      -0.82321941      -6.76616665
H        -0.38647321      -0.21467638      -7.82366689
H        -3.11047871       1.11705785      -7.47935627
H        -2.66755350       0.00663061      -8.77470337
H        -1.86804967       1.56271442      -8.65465573
H        -0.54717706       2.59912047      -7.36866326
H         0.94906501       1.71813434      -7.25034229
H         1.14765401       3.93440025      -6.29930624
H         1.32209111       2.79480163      -4.97600409
H        -0.90332351       3.22726890      -4.16463381
H        -1.33671254       4.10999427      -5.62699428
H         0.85823085       5.01100144      -3.70394151
H        -0.79707304       5.65456555      -3.73165137
H         0.27075787       5.88736228      -5.11111392
H         2.60195689       2.20723396      -2.78222117
H         2.91479738       0.62413730      -2.03057662
H         0.42856611       3.05533440      -2.20049614
H         1.53561818       3.98570929      -1.16234831
H        -1.25750813       6.21416237      -0.88381517
H         0.21478620       5.47628581      -1.47271588
H        -0.01776485       7.02462678       1.14043440
H         2.50247281       6.18951421      -0.32410315
H         1.74556588       5.15136670       0.90311459
H         2.77324429       7.99508429       1.35747550
H         3.49040461       6.50940838       1.97191939
H         1.91176026       7.03799150       2.55508208
H         0.66714158       7.77002150      -1.69505372
H         1.58179340       8.51164820      -0.39761779
H        -0.15910061       9.97852675      -1.00370928
H        -0.41670062       9.41330926       0.64109842
H        -2.50737369       9.61583063      -0.50025673
H        -2.24672949       7.92230264      -0.15220885
H        -1.78540186       9.30104123      -2.84599594
H        -3.16371054       8.28719707      -2.44539814
H        -1.55611330       7.58051726      -2.57063084
H        -2.66138737       4.00195625       0.65417463
H        -2.18967648       5.68571669       0.98024831
H        -1.20685786       3.28541443       2.55304527
H        -0.95590594       6.29667006       2.97428904
H         0.34211600       5.13674337       2.68206404
H        -1.37649177       5.39847646       5.18689666
H         0.34781218       5.66766460       5.03748750
H        -0.30245963       4.02721416       4.89853707
H        -2.76960313       3.90017397       4.26187052
H        -3.61966171       3.54351308       2.77735066
H        -3.05637473       6.44034063       3.46759317
H        -4.29747338       5.56242373       4.32325937
H        -5.29816781       4.94894330       2.04686812
H        -4.25892719       6.19057678       1.35467127
H        -6.33710022       6.59847874       3.54544650
H        -6.43514899       7.17216235       1.88130563
H        -5.24086926       7.85504397       2.98039134
H         3.09037167       3.12084634      -0.02133473
H         3.49009392       1.39930099      -0.08959457
H         0.98871385       2.30634495       3.51631903
H         2.30037235       3.18186993       4.33228949
H         3.07392317       1.15007809       5.39581208
H         0.04302539       1.24213413       5.44168465
H         1.08213942       2.43735952       6.21933466
H         1.02197557      -0.53974274       6.91564699
H         0.41162829       0.79625742       7.88924082
H         2.13738626       0.64250338       7.59800135
H         1.36677380      -0.20591516       3.34865046
H         1.32271682      -0.88122176       4.95844937
H         4.02148168      -0.36385999       3.69523296
H         3.13331722      -1.87135073       3.39835225
H         2.98822235      -2.28044024       5.82890998
H         3.95319734      -0.83674360       6.13865580
H         4.89391146      -3.22958129       4.48415405
H         5.32942481      -2.91117339       6.16162475
H         5.86142181      -1.80694550       4.90017307
H         4.37680322       3.06232762       1.50941251
H         4.81993361       1.70589547       2.53557079
H         3.92587526       4.28612344       3.80656503
H         6.19481459       5.15514134       3.71448655
H         5.42802204       5.08290090       2.13758275
H         7.55576904       3.13414776       3.14958340
H         7.78221245       4.43364319       1.99584114
H         6.77605245       3.05665894       1.56615714
H         6.26879943       2.62672578       4.72531627
H         4.68402934       1.92018410       4.89672948
H         3.94681008       3.99563955       6.14650482
H         5.61591528       4.55194141       6.09620598
H         6.32276083       2.45510682       7.27338834
H         4.63313928       1.95098347       7.35124790
H         5.80035394       4.46809670       8.63180727
H         5.31596225       3.00637295       9.48226177
H         4.09784758       4.00751841       8.68327975
