26
strain_lig_173 ligand at complex geometry  charge=0 uhf=0  from=63|S=P(S)(c1ccccc1Cl)c1ccccc1Cl|nitrate
S         2.02769109      -1.78290097       0.52829059
P         3.25072404      -0.95221570      -0.73479753
S         2.06528227       0.61512585      -1.53018438
C         3.83464482      -1.69971588      -2.28769808
C         4.61627960      -0.87997673      -3.14047625
C         5.11768928      -1.34451408      -4.35752614
C         4.85637259      -2.64645033      -4.75727096
C         4.09840682      -3.47593644      -3.93570301
C         3.59151925      -3.01345481      -2.71077343
Cl        2.69107874      -4.16396022      -1.80532982
C         4.70981795      -0.18145228       0.01797414
C         4.77923821       1.20092999       0.27373677
C         5.91906921       1.77609198       0.84279518
C         7.00784068       0.98138289       1.18165652
C         6.95255089      -0.39162402       0.96107542
C         5.81300766      -0.96976689       0.39031392
Cl        5.83114360      -2.68247256       0.18157560
H         1.53956241      -0.20868886      -2.54265188
H         4.84337806       0.14816161      -2.85850101
H         5.71213617      -0.68913973      -4.99017647
H         5.24295941      -3.01973234      -5.70228968
H         3.90497529      -4.49878359      -4.25558672
H         3.94417134       1.85924466       0.04725923
H         5.95038848       2.84766294       1.02972357
H         7.89270285       1.42694208       1.62964703
H         7.80068476      -1.01139512       1.24435036
