126
strain_lig_097 ligand at complex geometry  charge=0 uhf=0  from=59|CCCCCCCCN(CCCCCCCC)C(=O)c1ccc2ccc3ccc(C(=O)N(CCCCCCCC)CCCCCCCC)nc3c2n1|water
C        -5.41799507      -4.59225712      -1.32610025
C        -4.74305445      -3.35548575      -1.90674345
C        -4.38321900      -2.30407413      -0.85353469
C        -5.53205536      -1.80865610       0.01840501
C        -5.05703072      -0.76198137       1.02696866
C        -4.04549562      -1.32420782       2.02717222
C        -3.50881891      -0.25432535       2.97460859
C        -2.68241906      -0.79550996       4.13640549
N        -1.31016549      -1.32185421       3.97618776
C        -0.82986806      -1.73503650       5.29316787
C        -1.45120980      -3.02681428       5.87467141
C        -0.99705493      -4.40987293       5.37213129
C        -1.67414844      -4.95788963       4.10933269
C        -1.08801903      -4.43349046       2.80568187
C        -1.62270204      -5.15628907       1.57695754
C        -1.04397513      -4.58414222       0.28260104
C         0.42836459      -4.96772709       0.10414111
C        -0.62271895      -1.29041152       2.83646713
O        -1.14988472      -0.92108371       1.75378535
C         0.84649121      -1.66914613       2.67828239
C         1.60814469      -2.55015392       3.45857412
C         2.89215361      -2.87158910       3.07995215
C         3.43285879      -2.35315989       1.89423095
C         4.69861912      -2.75061565       1.38070671
C         5.12438854      -2.32601078       0.16597370
C         4.32068189      -1.45704395      -0.62625916
C         4.64482660      -1.09679460      -1.94694447
C         3.77025392      -0.34417535      -2.70142888
C         2.57895279       0.11890672      -2.12189587
C         1.43689264       0.81668643      -2.82162331
O         0.30613653       0.61978366      -2.28298873
N         1.52837914       1.54794543      -3.92577559
C         2.71333996       1.92719470      -4.68176573
C         2.94253157       1.07871621      -5.95353347
C         2.31837484       1.62836078      -7.25022976
C         3.08457763       2.76923258      -7.93330238
C         3.01340097       4.11697912      -7.22072805
C         3.68936827       5.23877788      -8.00254720
C         3.63612998       6.55404660      -7.22933829
C         4.42274382       7.67229019      -7.89809458
C         0.28189281       2.09928835      -4.45808104
C         0.15720533       3.61670499      -4.31639484
C         0.06626115       4.09869952      -2.86846690
C         0.05433107       5.62970778      -2.74820066
C         1.28349505       6.38763020      -3.26009811
C         2.56392248       6.22217887      -2.43870189
C         3.37859322       4.96840237      -2.75678694
C         4.70433038       4.95136105      -2.00296947
N         2.27515974      -0.18884326      -0.85411362
C         3.08293284      -0.97753887      -0.12658704
C         2.60971641      -1.46356768       1.16175915
N         1.36259926      -1.14300709       1.55945546
H        -5.50089023      -5.35740265      -2.09215307
H        -6.41581205      -4.35922985      -0.96402142
H        -4.83583099      -5.01134841      -0.50876743
H        -5.40338283      -2.91951896      -2.65725431
H        -3.81789452      -3.66402436      -2.41385126
H        -3.97565218      -1.43428552      -1.37381332
H        -3.61012248      -2.73004275      -0.20973514
H        -5.98048521      -2.63496851       0.56210673
H        -6.29964010      -1.37162348      -0.61774902
H        -5.91602934      -0.38057308       1.57802259
H        -4.62089330       0.09259672       0.49393530
H        -3.20354931      -1.77228145       1.50080825
H        -4.54108398      -2.10325443       2.60694146
H        -4.36405416       0.22830804       3.45063487
H        -2.96490188       0.50929099       2.41772924
H        -3.26782434      -1.59945526       4.58772750
H        -2.59384969       0.00780480       4.87660475
H        -1.10969737      -0.92941914       5.97940867
H         0.24959222      -1.79508341       5.30880240
H        -2.53668596      -2.97437794       5.78138793
H        -1.21776489      -2.98785427       6.94395162
H        -1.24820012      -5.10543583       6.17534714
H         0.09023465      -4.45317154       5.26365025
H        -2.74650632      -4.76301549       4.14865954
H        -1.56024938      -6.04131657       4.10901855
H        -0.00087813      -4.52966580       2.84758633
H        -1.32762157      -3.37866674       2.69824513
H        -2.70814011      -5.07693662       1.55902879
H        -1.37663323      -6.21363967       1.63188217
H        -1.14351622      -3.48430702       0.29033921
H        -1.61420561      -4.97884331      -0.56142427
H         1.07162891      -4.40129202       0.78009095
H         0.75697119      -4.84029509      -0.92820885
H         0.56202585      -6.02279222       0.32478346
H         1.19896454      -3.02823134       4.32580587
H         3.46565572      -3.55027005       3.68997462
H         5.28094285      -3.44774934       1.95902871
H         6.05720903      -2.67976745      -0.24086057
H         5.57636158      -1.43088358      -2.37591445
H         4.00406905      -0.14441224      -3.73065679
H         3.58647504       1.90243781      -4.03312275
H         2.56865513       2.96189899      -4.98508575
H         2.54317131       0.07960271      -5.76115819
H         4.01620547       0.97839451      -6.13536236
H         1.28523771       1.94607432      -7.09235557
H         2.28001297       0.79458383      -7.95566600
H         2.65359495       2.89130955      -8.92748593
H         4.12560001       2.47381908      -8.06644301
H         3.51702093       4.05592915      -6.25466588
H         1.96559908       4.37843938      -7.04923898
H         3.20868050       5.36740556      -8.97027588
H         4.72797524       4.96831003      -8.19264918
H         4.03634202       6.39943113      -6.22051089
H         2.59242206       6.86718340      -7.11570561
H         5.47447913       7.40406498      -7.98844328
H         4.35002521       8.58508676      -7.30988684
H         4.04023106       7.87135920      -8.89731571
H        -0.54347152       1.61910340      -3.93675816
H         0.23977682       1.81102121      -5.50748004
H        -0.74910110       3.91397358      -4.84318858
H         0.99598751       4.10673649      -4.80479049
H         0.89484501       3.68889548      -2.28921219
H        -0.85480313       3.71033054      -2.41945386
H        -0.08548624       5.89002682      -1.69548126
H        -0.81781106       5.99941340      -3.28984302
H         1.01907999       7.44322906      -3.23026909
H         1.48806660       6.15019535      -4.30386722
H         2.33210216       6.25321045      -1.37185247
H         3.21364971       7.07158144      -2.64794069
H         3.57630701       4.94120850      -3.83115308
H         2.82132628       4.06032216      -2.50750670
H         5.30927468       5.80556434      -2.28751719
H         5.26853602       4.04728313      -2.22653922
H         4.53385656       5.00670957      -0.93014500
