137
strain_lig_063 ligand at complex geometry  charge=0 uhf=0  from=66|CCCCCCCCN(CCCCC(C)CCCC(C)C)C(=O)COCC(=O)N(CCCCCCCC)CCCCC(C)CCCC(C)C|water
C        -4.20567986       0.74804738       5.68649626
C        -5.22018628       1.36647320       4.73264761
C        -4.82112526       2.80621520       4.40205755
C        -5.64674475       3.45085318       3.28707811
C        -5.17006639       3.18558204       1.85615733
C        -4.09885644       4.15194513       1.31487242
C        -2.64454741       3.71533129       1.54070054
C        -1.67090525       4.34834717       0.53397963
N        -1.80711916       3.70870371      -0.78142099
C        -2.12406561       4.56846297      -1.91528384
C        -0.85009971       5.33261879      -2.29227806
C        -0.97953821       6.24193044      -3.50887366
C         0.32959391       7.00626133      -3.71829172
C         1.54892964       6.14549126      -4.07580316
C         1.32405252       5.40697561      -5.39851291
C         2.80654566       7.01723602      -4.21635442
C         3.29355162       7.76699371      -2.97184754
C         3.73579807       6.87579746      -1.80429148
C         2.66616387       6.58613323      -0.74313837
C         3.17710602       5.51063831       0.21616699
C         2.29934521       7.83812415       0.04886010
C        -1.32232830       2.48575317      -0.91192240
O        -0.63916335       1.94708535      -0.00944008
C        -1.67159558       1.65438017      -2.16271932
O        -1.25110970       0.32396041      -1.85455829
C        -1.78720859      -0.74951800      -2.62171607
C        -1.60255393      -1.99702646      -1.70891212
O        -1.24584211      -1.75067365      -0.53434372
N        -1.81700995      -3.21431837      -2.15083062
C        -2.39940399      -3.49457543      -3.46470463
C        -1.59795255      -4.47483511      -4.33338425
C        -2.03683506      -4.33782993      -5.79885207
C        -1.35167161      -3.18075236      -6.54587598
C        -0.19533323      -3.59848093      -7.46568789
C         1.07049059      -4.12167703      -6.77124943
C         1.13201355      -5.64560208      -6.64476408
C         2.49688952      -6.11319724      -6.14815106
C        -1.56687278      -4.45636356      -1.38201693
C        -1.15756462      -4.45137877       0.10081001
C         0.28673199      -4.01348925       0.40927741
C         0.93233893      -4.76953567       1.58955995
C         1.93765313      -3.95761249       2.43721610
C         2.06833415      -4.60467468       3.81693680
C         3.33855217      -3.66089211       1.84504233
C         4.43055953      -4.73975363       1.84805447
C         5.81254639      -4.10005122       1.57099933
C         6.77548931      -4.97669779       0.73640057
C         8.20778682      -4.90479297       1.26930165
C         6.81107946      -4.57206928      -0.73888416
H        -4.54378600      -0.20689447       6.08437084
H        -4.03685674       1.41629374       6.52619237
H        -3.25139788       0.61216750       5.17845412
H        -6.20070172       1.38016562       5.21012341
H        -5.30293511       0.76308703       3.82308465
H        -3.75385423       2.84809397       4.16885648
H        -4.96318385       3.40209761       5.30340605
H        -5.67503450       4.53083886       3.43114863
H        -6.67694150       3.09688593       3.37886875
H        -6.04374374       3.29833643       1.21572934
H        -4.83254572       2.15212787       1.74020827
H        -4.24513859       5.13357970       1.77009447
H        -4.25457466       4.26260954       0.23744375
H        -2.57321913       2.63185699       1.42875895
H        -2.32690991       3.98116501       2.55072400
H        -0.63920769       4.23385416       0.88326183
H        -1.89458839       5.40775858       0.43288642
H        -2.92177563       5.25557120      -1.63184834
H        -2.46686342       3.96852291      -2.75721495
H        -0.06128249       4.59764853      -2.46489624
H        -0.54348439       5.95358532      -1.45102977
H        -1.77908067       6.96353883      -3.33564353
H        -1.23882295       5.67016366      -4.39901153
H         0.53892270       7.55391036      -2.79983400
H         0.19548657       7.73196166      -4.51811040
H         1.72898440       5.40800632      -3.28451573
H         1.04252407       6.12046692      -6.16876709
H         0.53347771       4.66107341      -5.31981785
H         2.23519483       4.90690571      -5.72334177
H         2.61022633       7.75014666      -5.00114690
H         3.62783692       6.38715962      -4.57053160
H         2.53778080       8.47606965      -2.64009331
H         4.15281814       8.35546167      -3.29768310
H         4.57847807       7.34807155      -1.29708478
H         4.09626339       5.92920007      -2.21388530
H         1.76389939       6.21096617      -1.23562473
H         4.06451286       5.86619015       0.73130780
H         3.43815412       4.59790451      -0.31664546
H         2.42921431       5.26993559       0.96875468
H         3.18059748       8.24677759       0.53409574
H         1.56447696       7.60670637       0.81768138
H         1.88331586       8.61036022      -0.59080739
H        -1.15833241       2.02549438      -3.06170623
H        -2.75770775       1.67762290      -2.32274380
H        -1.22923625      -0.85776049      -3.56034359
H        -2.84676857      -0.57309255      -2.84263443
H        -2.49602844      -2.56370426      -4.01603897
H        -3.40192567      -3.90532470      -3.30469034
H        -1.77641674      -5.49784357      -4.00621288
H        -0.52900616      -4.27094301      -4.25677304
H        -3.11976960      -4.19820751      -5.81430522
H        -1.83192636      -5.26236055      -6.33673039
H        -0.99143060      -2.43509038      -5.82682293
H        -2.08982422      -2.68520426      -7.17951718
H         0.07040240      -2.71892738      -8.05533938
H        -0.55484102      -4.35387506      -8.16582135
H         1.16873213      -3.66244610      -5.78108303
H         1.93935072      -3.81069775      -7.35743252
H         0.95460996      -6.08322183      -7.62866753
H         0.34790776      -6.00811272      -5.97558202
H         3.27209772      -5.83954370      -6.85905014
H         2.50809769      -7.19355622      -6.04103898
H         2.74387864      -5.67027319      -5.18546303
H        -0.80015490      -4.99275370      -1.94747752
H        -2.49601779      -5.03083710      -1.45488730
H        -1.26748414      -5.49468445       0.40798192
H        -1.87102464      -3.87090597       0.68056551
H         0.30215604      -2.93902497       0.61511663
H         0.86758232      -4.18238298      -0.49304761
H         1.40552339      -5.68204616       1.23102591
H         0.13436173      -5.07837223       2.26865128
H         1.47663935      -2.97177039       2.57886041
H         2.36105276      -5.64558814       3.72124102
H         1.12143077      -4.56660370       4.35408880
H         2.82031773      -4.09536333       4.41486448
H         3.74616445      -2.84020855       2.44651741
H         3.21601896      -3.29632797       0.82483653
H         4.21799417      -5.50512485       1.10187626
H         4.46653838      -5.23251365       2.82100249
H         6.28480799      -3.87395485       2.52765807
H         5.68177171      -3.14406260       1.05699657
H         6.43750319      -6.01290736       0.80991119
H         8.54063594      -3.86795416       1.33178200
H         8.88216521      -5.42926115       0.59486865
H         8.29860099      -5.36190849       2.25243486
H         7.25998162      -5.36596332      -1.33040342
H         5.81817324      -4.37912053      -1.13522735
H         7.42589075      -3.68352777      -0.86334887
