113
strain_lig_023 ligand at complex geometry  charge=0 uhf=0  from=66|CCCCC(CC)CN(CC(CC)CCCC)C(=O)COCC(=O)N(CC(CC)CCCC)CC(CC)CCCC|nitrate
C         3.29407653      -0.55421795      -1.56409686
C         3.75577084      -0.74495355      -3.00927827
C         2.71276809      -0.30621055      -4.05621536
C         2.28684041      -1.41858556      -5.02371369
C         1.20294973      -2.41732710      -4.58318028
C         1.50334232      -3.10269455      -3.24735243
C         0.79759523      -4.44317670      -3.09273678
C        -0.27383620      -1.97439189      -4.76765551
N        -0.88033170      -0.67929651      -4.37679297
C        -1.81280849      -0.10867020      -5.34937288
C        -1.36885595       1.25357849      -5.91686204
C        -2.54133568       1.80313711      -6.74358865
C        -2.27028117       3.15062656      -7.40213343
C        -0.08268775       1.09790892      -6.74340770
C         0.90752175       2.24703908      -6.54521063
C         2.18004006       2.03446127      -7.36492658
C         3.13475798       3.21474114      -7.25660047
C        -0.88860208      -0.22628942      -3.13300776
O        -0.01165473      -0.49527438      -2.28591028
C        -2.04190235       0.67318907      -2.64747342
O        -1.72958976       1.05199711      -1.30960646
C        -2.84947029       1.53236904      -0.57016618
C        -2.48673006       1.47814045       0.91940689
O        -1.30989734       1.16337876       1.21434506
N        -3.39716556       1.79744152       1.83112517
C        -3.00682900       1.84850726       3.23572991
C        -2.34854203       3.14883830       3.75656715
C        -2.87442722       4.46498517       3.16730560
C        -2.48038217       4.77894229       1.72833573
C        -0.81617924       3.08092742       3.67878619
C        -0.21952454       2.10567123       4.70843374
C         0.85852500       2.74870322       5.58356999
C         2.10762548       3.15956494       4.81206938
C        -4.78194409       2.16955407       1.55132691
C        -5.96169938       1.32891938       2.12220861
C        -6.40220928       1.63670803       3.56955343
C        -6.68051290       3.09776051       3.89994982
C        -5.83747619      -0.19512955       2.01850556
C        -5.51294250      -0.83314389       0.66734204
C        -6.59930713      -0.73807075      -0.41026719
C        -6.65654912       0.56304933      -1.20569367
H         4.01852507      -0.99176583      -0.87757373
H         2.31620565      -1.03045979      -1.38517794
H         3.21202728       0.51108418      -1.35327259
H         4.00834087      -1.79116481      -3.16618155
H         4.68929672      -0.18898347      -3.13656276
H         3.14731399       0.47857473      -4.67665820
H         1.83959951       0.11631330      -3.55683895
H         3.17826878      -1.99808473      -5.27935820
H         1.94923270      -0.96561745      -5.95910243
H         1.27196728      -3.22246844      -5.33071451
H         1.23250722      -2.46764826      -2.40567026
H         2.57510847      -3.29686757      -3.21225324
H        -0.26205419      -4.31803846      -2.89714997
H         1.23206788      -4.97744798      -2.25584090
H         0.91907574      -5.06013550      -3.97866359
H        -0.88415302      -2.74339156      -4.27978233
H        -0.45004749      -2.03004765      -5.83974664
H        -2.80600619      -0.01648974      -4.90672472
H        -1.90534265      -0.79494769      -6.18946006
H        -1.15329375       1.94555153      -5.09691472
H        -3.41670405       1.89493200      -6.09493369
H        -2.78591998       1.07806999      -7.52247506
H        -1.93735237       3.88639010      -6.67234248
H        -3.18138689       3.51859733      -7.86866489
H        -1.51396159       3.05902414      -8.17644666
H        -0.33121605       1.00317127      -7.80216018
H         0.42307669       0.18030747      -6.44438244
H         1.17165575       2.30800840      -5.48375166
H         0.44653747       3.19527863      -6.82551955
H         1.91664309       1.87987475      -8.41261362
H         2.68043956       1.12849652      -7.01503133
H         2.67036858       4.11914123      -7.63866978
H         4.03158862       3.02840790      -7.83889871
H         3.42048220       3.38622855      -6.22070537
H        -2.95733145       0.06147320      -2.66697507
H        -2.20231772       1.56211320      -3.26755220
H        -3.71751922       0.89834672      -0.77774771
H        -3.07310370       2.56318574      -0.87355170
H        -2.30361874       1.03859158       3.42248344
H        -3.90948000       1.66294666       3.80945804
H        -2.60818837       3.18839757       4.82349576
H        -2.47205698       5.26403763       3.79321449
H        -3.95958922       4.50508051       3.26754227
H        -1.41298426       4.63568696       1.59408983
H        -2.71599187       5.81938527       1.51420296
H        -3.00139785       4.16417024       1.00031231
H        -0.43035678       4.08213288       3.88032479
H        -0.51476268       2.79434102       2.66925025
H         0.19099510       1.23380084       4.19312999
H        -1.00622352       1.73594111       5.37044342
H         1.13875228       2.04481895       6.36971486
H         0.43419422       3.62857468       6.07126002
H         2.65599463       2.28924477       4.45288594
H         2.77223403       3.72078045       5.46236017
H         1.84943959       3.78964994       3.96251609
H        -4.90526152       2.19740747       0.47202282
H        -4.92963102       3.18317998       1.92996533
H        -6.79966244       1.64976517       1.49674018
H        -5.69555176       1.23182491       4.29634644
H        -7.33511696       1.09027123       3.72258675
H        -5.77018393       3.68500982       3.98775393
H        -7.19318381       3.15436987       4.85720133
H        -7.32593642       3.55176425       3.15283033
H        -6.78860428      -0.61780598       2.35155312
H        -5.08604316      -0.51987514       2.74023221
H        -5.36903936      -1.89572937       0.87737235
H        -4.55852961      -0.47272253       0.28464109
H        -7.57139250      -0.92089403       0.04952604
H        -6.42183384      -1.54778720      -1.12219144
H        -6.89997042       1.42279349      -0.58754559
H        -7.42411496       0.48356386      -1.97198939
H        -5.70878126       0.75021626      -1.71007051
