94
strain_lig_124 ligand at complex geometry  charge=0 uhf=0  from=58|CCCCCc1nnc(-c2cccc(-c3cccc(-c4nnc(CCCCC)c(CCCCC)n4)n3)n2)nc1CCCCC|nitrate
C        -0.51156427       5.45387432      -2.99613076
C         0.92648355       5.88083469      -3.27687957
C         1.67521097       6.41448186      -2.05556111
C         1.90173901       5.34670518      -0.98412059
C         0.83529889       5.43331701       0.12305028
C         0.96793126       4.23468591       0.99359432
N         0.54960334       3.10689825       0.42861948
N         0.69807586       1.96047075       1.04753601
C         1.24305228       1.95490684       2.26897328
C         1.43898101       0.62426913       2.85520703
C         1.72971229       0.38928531       4.19493215
C         1.93242595      -0.92076854       4.59438395
C         1.87753510      -1.94103951       3.65309241
C         1.61462875      -1.61267513       2.32517542
C         1.70377302      -2.53695676       1.17272582
C         2.19670312      -3.84344519       1.22605084
C         2.43215142      -4.51508792       0.03410888
C         2.20580226      -3.86939138      -1.17048984
C         1.67013133      -2.58377803      -1.13552812
C         1.45572661      -1.76488692      -2.34123418
N         0.92543580      -0.55350288      -2.12515895
N         0.64187230       0.19523921      -3.16708355
C         0.94867441      -0.19600003      -4.39079465
C         0.51645969       0.70748259      -5.49663471
C        -0.53288052       0.06650961      -6.42142291
C        -1.84277010      -0.23854116      -5.69904286
C        -2.93870144      -0.70217554      -6.66108748
C        -2.65617263      -2.05632126      -7.30619468
C         1.71080877      -1.38717009      -4.56715152
C         2.39186901      -1.78422497      -5.83374463
C         3.92372644      -1.67184162      -5.69772444
C         4.42312635      -0.24688940      -5.46606595
C         4.36491995       0.64012107      -6.70800702
C         4.84848713       2.05063639      -6.39304911
N         1.89567585      -2.17759203      -3.52104579
N         1.40223655      -1.95531799       0.00852487
N         1.37977912      -0.35503643       1.95306347
N         1.65375507       3.03662253       2.91180515
C         1.55120658       4.20061238       2.28806817
C         2.09770847       5.36592180       3.04080530
C         3.60781419       5.17996880       3.28768863
C         4.40083279       5.13076615       1.98679075
C         5.89643879       4.96402970       2.24003988
C         6.67754392       4.88851312       0.93339279
H        -1.00408360       5.19013912      -3.92961149
H        -0.55029682       4.58697140      -2.33903445
H        -1.06735453       6.27140711      -2.54169901
H         1.48291268       5.03340953      -3.68477453
H         0.92286223       6.66190989      -4.03922828
H         2.64054801       6.79777985      -2.38749572
H         1.12803224       7.25282144      -1.62303347
H         1.86735094       4.35022323      -1.43284907
H         2.88208257       5.47268577      -0.52230581
H         0.95430945       6.36555794       0.67043237
H        -0.15265228       5.41942785      -0.33188811
H         1.79359794       1.21116426       4.89081039
H         2.14628580      -1.14921336       5.62515848
H         2.05293696      -2.96264324       3.94396755
H         2.40855029      -4.32557812       2.16373002
H         2.81697654      -5.52026311       0.05374352
H         2.44674876      -4.32099786      -2.11710978
H         0.09254014       1.60341543      -5.04239185
H         1.39246946       0.99278839      -6.08598341
H        -0.73465763       0.77271593      -7.22893199
H        -0.13339862      -0.84571331      -6.86659883
H        -1.67961498      -1.00910707      -4.94247601
H        -2.18238676       0.66208639      -5.18295135
H        -3.87491189      -0.76969304      -6.10523970
H        -3.07409036       0.04981067      -7.44179224
H        -2.44432526      -2.80473394      -6.54488539
H        -3.52278835      -2.38541736      -7.87517655
H        -1.81123868      -2.00457095      -7.98892603
H         2.15064165      -2.83076831      -6.03043531
H         2.05585828      -1.18581788      -6.67546123
H         4.23317603      -2.30861219      -4.86878571
H         4.37710444      -2.06241831      -6.60982076
H         3.86133763       0.21830595      -4.65179459
H         5.46371839      -0.30594456      -5.14570821
H         4.99427536       0.20244964      -7.48632448
H         3.34554462       0.68820322      -7.09884888
H         5.87767232       2.03062224      -6.04182500
H         4.80107406       2.67914040      -7.27798809
H         4.23156286       2.50230407      -5.61797551
H         1.91967262       6.31167147       2.53255920
H         1.59097574       5.38342420       4.00887553
H         3.96063138       6.01043636       3.90033706
H         3.75596365       4.25609307       3.84714652
H         4.05214805       4.29337848       1.37533693
H         4.23487604       6.05289775       1.42511272
H         6.26003925       5.80692254       2.83072155
H         6.06895515       4.05283873       2.81857567
H         6.54490825       5.79893119       0.35227860
H         7.73965440       4.76237710       1.12885941
H         6.33859379       4.04716461       0.33073146
