78
strain_lig_080 ligand at complex geometry  charge=0 uhf=0  from=63|CCCCCCCCN(CCCCCCCC)C(=O)COCC(=O)N1CCCCC1|nitrate
C         1.39925064       1.52725227      -8.84386758
C         0.87738590       0.11208391      -8.61425107
C         0.17864773      -0.06679708      -7.26460190
C        -1.16220778       0.65822779      -7.18982751
C        -1.85706907       0.46639275      -5.84197481
C        -3.25638943       1.08086572      -5.88044402
C        -4.01621123       1.00307403      -4.55395368
C        -3.82256122       2.22451788      -3.64497426
N        -2.48769019       2.33886597      -3.07041391
C        -1.56278977       3.30894643      -3.66314630
C        -1.10582450       4.39132703      -2.68758119
C        -2.23268401       5.20517341      -2.05903118
C        -1.70275317       6.45415684      -1.34970144
C        -0.70644818       6.14994055      -0.23178371
C        -0.20278236       7.42937930       0.43782152
C         0.92559958       7.18340106       1.44192262
C         0.47083617       6.41318895       2.67886323
C        -2.05809671       1.54147758      -2.10151813
O        -0.90467537       1.57687418      -1.63065658
C        -2.98684771       0.46300160      -1.52719453
O        -2.66845857       0.20691057      -0.16413040
C        -3.33233539       1.05563436       0.76095625
C        -2.31019746       1.46476030       1.83080438
O        -1.11152683       1.16604891       1.65960804
N        -2.73407641       2.14737417       2.87925217
C        -4.11949103       2.43861775       3.19143822
C        -4.45542824       1.82347248       4.55074980
C        -3.58356427       2.43666819       5.65988386
C        -2.45723386       3.28122911       5.06053532
C        -1.77385288       2.55726965       3.90573578
H         1.94882792       1.56918420      -9.78039746
H         2.07226770       1.82341522      -8.03927504
H         0.58682558       2.24781663      -8.90143812
H         1.71928405      -0.58256014      -8.66572992
H         0.18383540      -0.15243281      -9.41437822
H         0.83852384       0.29074790      -6.46942834
H         0.00660067      -1.13346404      -7.10156533
H        -1.80866015       0.27429625      -7.98049210
H        -1.02036771       1.72612396      -7.36417560
H        -1.24565220       0.90829148      -5.04964252
H        -1.94771933      -0.60171076      -5.62565947
H        -3.82912141       0.53401255      -6.62902499
H        -3.19748693       2.11767936      -6.21219124
H        -3.71462644       0.08866878      -4.04370260
H        -5.08604840       0.92724845      -4.75642394
H        -4.55572451       2.19600735      -2.83625545
H        -4.03366324       3.12396885      -4.22538386
H        -2.05191952       3.76142839      -4.52524461
H        -0.67816548       2.76620647      -4.00586720
H        -0.44756551       5.06859801      -3.22979002
H        -0.52322472       3.91689640      -1.90148910
H        -2.77777123       4.57896320      -1.34904936
H        -2.93210658       5.52482955      -2.83122179
H        -2.54365908       7.00897159      -0.93126868
H        -1.22345386       7.10191998      -2.08507314
H         0.15629257       5.61752697      -0.64032900
H        -1.18463490       5.49883605       0.50501037
H        -1.02870049       7.93269750       0.94182353
H         0.16736002       8.10198204      -0.33790717
H         1.31945316       8.14852821       1.76311465
H         1.74060015       6.64480763       0.94741071
H        -0.33308598       6.95083903       3.17523575
H         1.29253122       6.30651271       3.38428886
H         0.10947094       5.41919359       2.41290869
H        -2.71059274      -0.45335143      -2.05735554
H        -4.05557290       0.65428751      -1.65099826
H        -4.17713182       0.50222715       1.19317660
H        -3.72023232       1.94622903       0.25528686
H        -4.78679134       2.03598167       2.43741331
H        -4.25185236       3.52050050       3.22381787
H        -4.27340817       0.74907077       4.49785615
H        -5.51383288       1.97194925       4.76650178
H        -3.15524735       1.65098752       6.28428727
H        -4.18296059       3.07599918       6.30456473
H        -1.70552634       3.49982732       5.82049234
H        -2.85041262       4.23851293       4.71540833
H        -1.25489917       1.66350041       4.26723500
H        -1.03210717       3.21434573       3.43945097
