169
strain_lig_069 ligand at complex geometry  charge=0 uhf=0  from=58|CCCCCCCCN(CCCCCCCC)C(=O)CN(CC(=O)N(CCCCCCCC)CCCCCCCC)CC(=O)N(CCCCCCCC)CCCCCCCC|nitrate
C         1.63384509      -7.87464457       1.04634687
C         0.33008187      -7.08480669       1.01341460
C         0.54936506      -5.57164465       0.99437757
C         1.16571580      -5.03075887      -0.29763038
C         0.18200510      -5.02336194      -1.46462264
C         0.82629273      -4.72670336      -2.81913661
C         1.48692120      -3.34587229      -2.91389863
C         2.98970031      -3.38695200      -2.62279931
N         3.56277714      -2.05193870      -2.77790324
C         4.15627179      -1.75386989      -4.06634190
C         5.60477209      -2.25347573      -4.15441120
C         6.57146636      -1.43799059      -3.29864842
C         7.98467706      -2.02205446      -3.31407434
C         9.04103547      -1.04016790      -2.80541717
C         8.81042601      -0.55831347      -1.37358052
C         9.99012411       0.27625310      -0.87633005
C         9.75713042       0.84751576       0.51707124
C         3.41475260      -1.20558929      -1.77013519
O         2.95838922      -1.57507296      -0.67288092
C         3.78134195       0.26849714      -1.95971749
N         3.65520247       1.00516361      -0.69194953
C         4.76086090       0.65844710       0.22033213
C         4.40256316       1.10157551       1.64717740
O         3.29871875       1.63973454       1.84251653
N         5.30903835       0.98636712       2.61063126
C         5.05905486       1.66566493       3.87957647
C         4.40631077       0.82959227       4.98017240
C         2.92750805       0.53897631       4.72553332
C         2.24091663       0.01561361       5.98826069
C         0.78528966      -0.38634933       5.73594883
C         0.66952160      -1.80416318       5.17188227
C        -0.67849264      -2.09946726       4.51258139
C        -0.89293394      -3.59723718       4.32667580
C         6.50002760       0.16182827       2.50370030
C         6.20351258      -1.33658496       2.64080410
C         7.46390832      -2.15386948       2.93011757
C         7.96197080      -1.99529874       4.36607051
C         9.17332222      -2.87567808       4.67853832
C         8.84234919      -4.36765908       4.70365381
C         9.96942808      -5.21834382       5.28988093
C        11.22884073      -5.21873822       4.43153197
C         3.61509364       2.45643282      -0.97101802
C         2.19598955       3.02377620      -0.80953252
O         1.39556024       2.42131004      -0.07789535
N         1.86704711       4.19743102      -1.33703549
C         0.56689823       4.74404532      -0.93958724
C         0.58533239       5.16945595       0.53071188
C         1.53605884       6.34329706       0.79880678
C         2.22235735       6.25566938       2.16379684
C         3.32924928       5.20047218       2.24274935
C         4.53122940       5.52351228       1.35377823
C         5.71225749       4.59198232       1.62302862
C         6.84971411       4.80217608       0.62995110
C         2.56831180       4.88561097      -2.40087966
C         1.89331470       4.65945464      -3.76191900
C         1.62992534       3.18341436      -4.05933429
C         1.27635129       2.95581966      -5.53241651
C         2.52229561       2.84043068      -6.41413365
C         3.16632989       1.45595814      -6.30555637
C         4.63260498       1.42814468      -6.73999639
C         5.56579168       2.07137191      -5.71941043
H         2.19836402      -7.74386504       0.12636549
H         2.25284063      -7.54707420       1.87866140
H         1.42970708      -8.93608237       1.16569173
H        -0.24935727      -7.33193724       1.90568804
H        -0.25983550      -7.39384250       0.14851051
H        -0.40565168      -5.06807419       1.15959124
H         1.21075124      -5.31313304       1.82246286
H         1.49674652      -4.00649536      -0.10969430
H         2.04071008      -5.62871714      -0.55754330
H        -0.30150678      -5.99882176      -1.53450693
H        -0.59744298      -4.28411850      -1.26764218
H         1.56580034      -5.49845532      -3.04435877
H         0.04728940      -4.79325822      -3.58064752
H         1.34629004      -2.94232864      -3.91948143
H         1.01098079      -2.65536777      -2.21296033
H         3.49382846      -4.05976164      -3.31655344
H         3.16854997      -3.72545308      -1.60246500
H         4.11782556      -0.68482170      -4.27000662
H         3.55543525      -2.25570329      -4.82815375
H         5.91883863      -2.20378836      -5.19763314
H         5.64689534      -3.29873116      -3.84517970
H         6.20906603      -1.41623573      -2.26864867
H         6.61152143      -0.41493590      -3.68250266
H         8.24309620      -2.30033526      -4.33751642
H         8.00688371      -2.93024059      -2.70921662
H        10.01569659      -1.52845815      -2.85605208
H         9.07551691      -0.17417024      -3.47098567
H         7.90153644       0.04864432      -1.32996884
H         8.66985907      -1.41945926      -0.71601299
H        10.88604027      -0.34610559      -0.86338557
H        10.16925862       1.09575469      -1.57576737
H         8.90050383       1.52075982       0.52052726
H         9.57649326       0.04995582       1.23463591
H        10.62768419       1.40865593       0.84563772
H         3.03959124       0.67221639      -2.65825760
H         4.79097309       0.38389177      -2.37699529
H         4.89676437      -0.42750498       0.21211058
H         5.70231607       1.13955708      -0.09265683
H         4.41170398       2.51843550       3.66168802
H         6.02497392       2.03733688       4.23031093
H         4.49502835       1.40491891       5.90474443
H         4.95435854      -0.10216123       5.12154244
H         2.83580097      -0.18737513       3.91268674
H         2.42933515       1.45843667       4.40544836
H         2.78899156      -0.84413142       6.37841246
H         2.27392389       0.79901991       6.74839916
H         0.22511492      -0.33588537       6.67148281
H         0.34061687       0.34448190       5.05523576
H         1.46576694      -1.97933798       4.44774570
H         0.82340766      -2.51321947       5.98749608
H        -1.48522827      -1.68666619       5.12348899
H        -0.72139650      -1.63077256       3.52122724
H        -0.91644112      -4.10252050       5.28920115
H        -1.83355996      -3.78707782       3.81607983
H        -0.08791336      -4.02060020       3.73187593
H         7.00551736       0.35533818       1.55446154
H         7.17249712       0.46790475       3.30538903
H         5.73333910      -1.70779938       1.73018588
H         5.48573051      -1.49109203       3.44461091
H         8.25639857      -1.87155907       2.23287253
H         7.22784113      -3.20338355       2.75761469
H         8.23876601      -0.95428976       4.54954835
H         7.15225268      -2.25016092       5.05330845
H         9.95573810      -2.68043403       3.94339292
H         9.56088759      -2.59072775       5.65934127
H         8.62650637      -4.72005345       3.69340468
H         7.94412446      -4.51728668       5.30763959
H         9.61098413      -6.24517970       5.39012771
H        10.21287276      -4.85570338       6.29094046
H        11.96551550      -5.90237049       4.84593030
H        10.99851018      -5.53886471       3.41744535
H        11.67442525      -4.22823354       4.38937234
H         4.03767731       2.66226946      -1.95807916
H         4.21373735       2.98724836      -0.22358312
H        -0.19891750       3.97912274      -1.09646028
H         0.34880503       5.59911344      -1.57655860
H         0.87458907       4.30939638       1.13472259
H        -0.43022301       5.44075068       0.81851353
H         0.97779654       7.27924511       0.74564948
H         2.30583623       6.38659558       0.02938517
H         2.65799695       7.22865699       2.40032875
H         1.47043415       6.03956132       2.92476717
H         2.93435432       4.21462644       1.98178155
H         3.67189368       5.15050388       3.27909841
H         4.84548771       6.55384264       1.53118685
H         4.24930686       5.44299115       0.30105923
H         6.08295754       4.76625935       2.63456869
H         5.37212190       3.55319940       1.57789349
H         7.21147589       5.82552823       0.68125093
H         7.68233796       4.13783600       0.85043587
H         6.51790248       4.61359471      -0.39020149
H         2.57406855       5.95573038      -2.17669158
H         3.60555200       4.55452749      -2.44015581
H         0.94656831       5.19849139      -3.79994389
H         2.54377815       5.08593248      -4.52710623
H         0.81409817       2.82514420      -3.43027022
H         2.52245991       2.60210480      -3.81686076
H         0.65284325       3.78124143      -5.87741427
H         0.68918894       2.04178531      -5.62902485
H         2.25434805       3.02472485      -7.45491646
H         3.23959937       3.60995137      -6.12532400
H         3.09623516       1.10143517      -5.27357215
H         2.59709213       0.75746443      -6.92130435
H         4.93933838       0.39034656      -6.88985532
H         4.73427191       1.94234676      -7.69639006
H         5.47770311       1.57481247      -4.75272607
H         5.33589802       3.12532152      -5.58476788
H         6.59850449       1.99305436      -6.04948369
