119
strain_lig_021 ligand at complex geometry  charge=0 uhf=0  from=63|CCCCC(CC)CN(CC(CC)CCCC)C(=O)CCOCCC(=O)N(CC(CC)CCCC)CC(CC)CCCC|water
C        -5.71019592      -6.61115939       3.81006003
C        -4.18810166      -6.69164819       3.84603244
C        -3.54099526      -6.67957765       2.45883893
C        -3.72990884      -5.35802025       1.70011208
C        -2.43610845      -4.57382953       1.42000310
C        -2.73675264      -3.43744646       0.43462337
C        -2.92558317      -3.93317763      -0.99157920
C        -1.82435476      -4.01582660       2.71778965
N        -0.36300413      -4.03692127       2.77397182
C         0.24780588      -5.31730532       3.11806163
C         0.54843195      -5.61849266       4.60215248
C        -0.67237390      -6.15796673       5.37764284
C        -1.41413326      -5.10410749       6.18980255
C         1.72340162      -6.62832451       4.66604213
C         2.97596051      -6.04377337       5.32309752
C         4.00526840      -7.09851865       5.73534949
C         4.51151622      -7.95521750       4.58177117
C         0.31313704      -2.95624201       2.35813621
O        -0.25413404      -2.02398382       1.75668685
C         1.77129511      -2.79521829       2.76274138
C         2.61759518      -1.99281603       1.76790839
O         2.15365185      -0.64369529       1.61076336
C         3.20519403       0.32483123       1.52412309
C         2.90124529       1.59816842       2.32566819
C         1.97553215       2.61985006       1.68189498
O         0.99049658       2.21166390       1.03117776
N         2.15452463       3.92925879       1.96177774
C         3.46746862       4.42917858       2.42427186
C         3.83164450       5.91438571       2.20600569
C         3.73975032       6.35403626       0.74120915
C         3.76808153       7.87484699       0.59595095
C         5.20624596       6.23595946       2.84491147
C         6.46740137       5.94349646       2.02850676
C         7.71579639       6.62279533       2.60507600
C         8.15899236       6.05847525       3.94951350
C         0.90801817       4.72024805       1.80296189
C         0.75138108       6.16358404       2.31184314
C         0.94670242       6.30042108       3.82474774
C         1.11586948       7.74745501       4.27584467
C        -0.62279666       6.71483348       1.88168489
C        -1.86003464       6.04241621       2.46982276
C        -3.15572923       6.74254816       2.04575528
C        -3.42979294       6.73478996       0.54433167
H        -6.10728106      -6.77767767       4.80817162
H        -6.12396474      -7.36741498       3.14692015
H        -6.05173546      -5.63318413       3.47710794
H        -3.90031815      -7.61921437       4.34502098
H        -3.80636543      -5.85859609       4.44075650
H        -3.95833671      -7.50619468       1.88349743
H        -2.47406225      -6.88750235       2.56342637
H        -4.41023364      -4.71547569       2.25781424
H        -4.21643831      -5.56520606       0.74737223
H        -1.71352508      -5.25728022       0.96620477
H        -1.92797704      -2.69761303       0.44566776
H        -3.64465029      -2.93877059       0.78065755
H        -3.51792477      -3.21936590      -1.54507820
H        -3.43957104      -4.88975400      -1.02053101
H        -1.96467447      -4.03527313      -1.48415989
H        -2.17729852      -4.60086912       3.56261618
H        -2.14307170      -2.98125804       2.85586927
H         1.17213203      -5.40405975       2.54500470
H        -0.42367796      -6.09879128       2.75282386
H         0.86928422      -4.68714020       5.07765151
H        -0.33553475      -6.91888266       6.08078236
H        -1.36573187      -6.65171479       4.69745020
H        -0.74224284      -4.65531561       6.91775845
H        -2.23643700      -5.56185280       6.73457289
H        -1.82333489      -4.31740480       5.56353190
H         1.97251614      -6.97948184       3.66366065
H         1.41657128      -7.50514557       5.23356158
H         2.67826643      -5.50303013       6.22280826
H         3.44809036      -5.32806710       4.64335722
H         3.56990759      -7.74401009       6.49906316
H         4.85315795      -6.58283475       6.18965022
H         3.71470240      -8.56904914       4.17008736
H         5.29558548      -8.62134403       4.93067241
H         4.92376337      -7.33333056       3.78894232
H         2.26972589      -3.74434691       2.94774300
H         1.75964311      -2.25702754       3.71729310
H         2.62725537      -2.48732928       0.78853114
H         3.64232495      -1.97523380       2.15401572
H         3.38289450       0.56131651       0.46923416
H         4.12477306      -0.10681835       1.94518082
H         3.84888170       2.03831426       2.62156033
H         2.37254794       1.29394577       3.23747598
H         4.22885903       3.84375829       1.90165276
H         3.55191633       4.23161644       3.50064337
H         3.13496153       6.51986059       2.77748022
H         4.56804239       5.93664359       0.16591019
H         2.81264244       5.96826994       0.31134609
H         2.96749494       8.34268908       1.16644628
H         3.64327016       8.15647192      -0.44682930
H         4.71156000       8.28390921       0.94563056
H         5.27402462       5.71311577       3.80033014
H         5.19942343       7.30247222       3.07387348
H         6.34657282       6.31398465       1.00998440
H         6.64532964       4.86755511       1.98523415
H         7.52910092       7.69492181       2.69984329
H         8.53054823       6.49552103       1.88806771
H         7.39599280       6.20181375       4.71068089
H         9.06294449       6.56129572       4.28320346
H         8.37458897       4.99475696       3.86458438
H         0.14530869       4.12138954       2.31382147
H         0.66863098       4.71815344       0.73463561
H         1.46683419       6.80465954       1.80201969
H         1.81552462       5.72655230       4.14347657
H         0.07947391       5.88400155       4.33335018
H         0.19046120       8.30458285       4.16643367
H         1.40299383       7.78298518       5.32321578
H         1.88854480       8.25278924       3.70157988
H        -0.68352972       6.67730702       0.79564810
H        -0.64711529       7.76633787       2.16666564
H        -1.82215719       6.08095832       3.55813338
H        -1.89648427       4.99427452       2.16850371
H        -3.11990193       7.77893231       2.38379576
H        -3.99394611       6.26013482       2.55504308
H        -2.68999610       7.31894201       0.00262065
H        -4.40285214       7.18047573       0.34893594
H        -3.43508239       5.72039575       0.14318383
