120
strain_lig_107 ligand at complex geometry  charge=0 uhf=0  from=66|CCCCCCCCP(=O)(CCCCCCCC)Cc1cccc(CP(=O)(CCCCCCCC)CCCCCCCC)[n+]1[O-]|water
C        -6.30065237      -4.35804262       4.80052786
C        -7.60115922      -3.98046105       4.09947050
C        -7.55799985      -2.58256391       3.47894990
C        -7.47476983      -1.47282744       4.52526455
C        -7.56702424      -0.06264423       3.94259141
C        -6.48292272       0.29443234       2.92335748
C        -5.06590423       0.26512337       3.50497439
C        -4.03021228       0.50313373       2.40622627
P        -2.29461397       0.07138114       2.83333306
O        -1.53466625      -0.29185318       1.59159852
C        -2.29885974      -1.35174273       3.97211430
C        -0.90052433      -1.94891185       4.11620704
C        -0.92802524      -3.28781917       4.86325694
C        -0.75678798      -3.12653464       6.37519113
C        -1.78611646      -2.24230581       7.07956146
C        -3.25220366      -2.67270267       6.93345271
C        -3.70973193      -3.66706558       8.00114104
C        -3.15449836      -5.07017924       7.79774896
C        -1.41575067       1.53756903       3.55561899
C         0.02238501       1.29166938       3.87463341
C         0.43358945       1.13786463       5.19027809
C         1.77454114       0.99763625       5.49849134
C         2.69584266       1.04554166       4.46585808
C         2.27226452       1.21959159       3.15173576
C         3.30163879       1.42733816       2.07915189
P         3.20440425       1.04303957       0.23953035
O         2.22997673      -0.04324241      -0.14725789
C         2.94787526       2.47051046      -0.87555490
C         3.94954975       3.62004883      -0.79452893
C         3.42805330       4.82900843      -1.57872699
C         2.17808197       5.47533636      -0.98005807
C         2.37555178       5.91572827       0.46916340
C         1.22700342       6.75274547       1.03880133
C         0.04375865       5.92522454       1.55403350
C        -1.00249576       5.63901068       0.48103196
C         4.96996919       0.60297847      -0.03615406
C         5.31312366      -0.81437496       0.42990785
C         6.73055958      -0.94885256       1.00143299
C         6.93760388      -0.38519050       2.40977338
C         6.62610340      -1.37125247       3.53747885
C         5.16348928      -1.80164789       3.61494065
C         4.82844784      -2.58886927       4.87936571
C         3.35721216      -2.98777082       4.91435619
N         0.95121634       1.29068354       2.88066023
O         0.58797318       1.46323024       1.63671425
H        -6.34033276      -5.38758303       5.14496275
H        -5.45698185      -4.25839293       4.11674922
H        -6.12484035      -3.72576606       5.66632556
H        -7.80222320      -4.70805737       3.30961591
H        -8.42356202      -4.03379654       4.81297590
H        -6.70073949      -2.53615654       2.80163169
H        -8.45974290      -2.43531360       2.88122369
H        -8.30694551      -1.59608004       5.21798822
H        -6.55830620      -1.57653846       5.10679633
H        -8.53175187       0.04954834       3.44751492
H        -7.53354139       0.65416999       4.76323634
H        -6.53463157      -0.40753578       2.08873433
H        -6.68869355       1.29175584       2.52823169
H        -4.97309830       1.02149612       4.28544522
H        -4.89949739      -0.71312943       3.95599487
H        -4.26133538      -0.14329936       1.55259628
H        -4.06711404       1.53208669       2.04175080
H        -2.72762230      -1.08024706       4.93262452
H        -2.95692279      -2.09525735       3.50781310
H        -0.46315844      -2.07056877       3.11788180
H        -0.25358778      -1.26729823       4.67040542
H        -1.85353029      -3.82095715       4.63987990
H        -0.10602040      -3.91003266       4.50549433
H        -0.76801222      -4.11818628       6.82030868
H         0.23105852      -2.69782216       6.55910413
H        -1.53282828      -2.22983060       8.13984466
H        -1.66543213      -1.21252676       6.73069511
H        -3.88096800      -1.78044394       7.01366385
H        -3.43704440      -3.11414969       5.95143009
H        -3.41931648      -3.29617785       8.98433036
H        -4.80005721      -3.71211394       7.98132794
H        -2.09498618      -5.11701459       8.03292422
H        -3.66765405      -5.76917523       8.45036672
H        -3.30150590      -5.39011665       6.76759781
H        -1.50138689       2.30777634       2.78145127
H        -1.94275102       1.87220057       4.44496593
H        -0.31357092       1.14304123       5.96750909
H         2.10162709       0.87887588       6.52134173
H         3.75023021       0.99364359       4.69205232
H         3.62336072       2.47542498       2.12124667
H         4.17705651       0.84437982       2.38176357
H         3.00484314       2.00522308      -1.86802487
H         1.93124186       2.83951474      -0.75837604
H         4.13435310       3.90996681       0.24016204
H         4.90755200       3.31646592      -1.21981872
H         4.22148187       5.57286283      -1.62754613
H         3.20818394       4.51325728      -2.60069742
H         1.94041959       6.35219773      -1.58193313
H         1.33776313       4.78672482      -1.07159189
H         2.51434622       5.04513192       1.11705759
H         3.29348311       6.50443123       0.51424505
H         1.62436418       7.33700735       1.86874387
H         0.87511673       7.45806175       0.28528228
H         0.41991532       4.99023383       1.98633158
H        -0.44246560       6.47201839       2.36329517
H        -0.58130075       5.10445639      -0.36577199
H        -1.83518126       5.06897465       0.89349311
H        -1.39463736       6.57900888       0.10469261
H         5.21374817       0.72583229      -1.09229229
H         5.56166139       1.33435473       0.51709086
H         4.57812661      -1.12556343       1.17321075
H         5.24274079      -1.48512931      -0.42903200
H         6.99727871      -2.00702583       1.01303774
H         7.41581357      -0.45314308       0.31285313
H         7.98716142      -0.11053743       2.50488379
H         6.35691283       0.53045598       2.54703295
H         7.24841071      -2.25777718       3.41344816
H         6.90988228      -0.90937062       4.48406501
H         4.51670298      -0.91959175       3.58134666
H         4.93033095      -2.42819715       2.75375202
H         5.44958733      -3.48360384       4.92395839
H         5.05853132      -1.98187148       5.75548983
H         3.10936722      -3.62204528       4.06533330
H         3.13562268      -3.53878840       5.82315677
H         2.71548983      -2.10786674       4.87668218
