68
strain_lig_016 ligand at complex geometry  charge=0 uhf=0  from=63|CC1(C)SC(C)(C)c2nc(-c3cccc(-c4cccc(-c5nnc6c(n5)C(C)(C)SC6(C)C)n4)n3)nnc21|nitrate
C        -3.12954611       5.04274662       1.47270361
C        -1.65868279       5.24569861       1.83087766
C        -0.93087049       6.05446556       0.75733765
S        -1.56729868       6.18382846       3.42843587
C        -0.61062762       4.91308301       4.36384431
C         0.76399803       5.48440355       4.71766274
C        -1.39868182       4.50518327       5.60509045
C        -0.45435256       3.77712448       3.41738306
N         0.18033570       2.66836242       3.74088484
C         0.30750024       1.76581574       2.76632158
C         1.12497154       0.56273708       3.00489895
C         1.65676477       0.28682034       4.26117409
C         2.49967363      -0.80094978       4.38963624
C         2.78173905      -1.56886740       3.27454462
C         2.19422001      -1.24042222       2.04946338
C         2.45270616      -1.98009796       0.79172022
C         3.50769251      -2.88356013       0.66369403
C         3.75494311      -3.47931063      -0.55914161
C         2.91918108      -3.18828177      -1.62049826
C         1.85134237      -2.32314098      -1.40433226
C         0.86234225      -2.05720276      -2.46188956
N        -0.01653609      -1.09047977      -2.21158985
N        -1.03191528      -0.89797881      -3.02643991
C        -1.13514936      -1.66535011      -4.09612126
C        -0.10710699      -2.58108334      -4.41498769
N         0.88745813      -2.78860289      -3.57663408
C        -0.22718870      -3.31605920      -5.70035241
C         0.92106543      -2.98936536      -6.65285397
C        -0.32827510      -4.81522721      -5.41898219
S        -1.81221509      -2.72369980      -6.43742352
C        -2.28058146      -1.59119913      -5.04394968
C        -2.45956419      -0.18401710      -5.60622901
C        -3.57076083      -2.10925493      -4.40744629
N         1.62977448      -1.71435758      -0.23137741
N         1.37743907      -0.18954808       1.92853633
N        -0.19827213       1.89826970       1.54075736
N        -0.85574387       2.99204565       1.21720103
C        -0.97731627       3.95153537       2.11620766
H        -3.59881260       6.01451619       1.34034221
H        -3.65001259       4.51852721       2.27107038
H        -3.23070434       4.47618215       0.55047149
H        -1.43284013       7.01233729       0.64407813
H        -0.93994320       5.54062470      -0.20065739
H         0.10068668       6.24145809       1.04769849
H         0.63694492       6.34363287       5.37097768
H         1.28202545       5.80781649       3.81719289
H         1.37093290       4.73592019       5.22095192
H        -1.51989814       5.36786085       6.25525546
H        -0.87828928       3.71833335       6.14488762
H        -2.38405447       4.14482202       5.31891785
H         1.40233852       0.92264801       5.09170921
H         2.95305368      -1.04009438       5.34017522
H         3.44554309      -2.40910786       3.38175223
H         4.13255815      -3.11497369       1.50776006
H         4.58090008      -4.16194758      -0.68955764
H         3.06544968      -3.61817198      -2.59636038
H         1.87677911      -3.27557072      -6.22027585
H         0.93847193      -1.92435764      -6.87300340
H         0.77483111      -3.53113129      -7.58364025
H         0.57490485      -5.17210554      -4.92998375
H        -0.46770786      -5.34678665      -6.35613003
H        -1.17950983      -5.01669373      -4.77252781
H        -1.54970904       0.14542382      -6.10256848
H        -2.70779767       0.52387163      -4.81967259
H        -3.26399874      -0.19899918      -6.33682244
H        -3.45156259      -3.13393810      -4.06211543
H        -4.36331711      -2.09078323      -5.15173348
H        -3.86521663      -1.48800999      -3.56523550
