87
strain_lig_012 ligand at complex geometry  charge=0 uhf=0  from=63|CC1(C)CCC(C)(C)c2nc(-c3cccc(-c4cccc(-c5cccc(-c6nnc7c(n6)C(C)(C)CCC7(C)C)n5)n4)n3)nnc21|water
C        -0.59459449       5.60350664       2.01349378
C         0.75663754       5.07290196       2.52670665
C         1.81166564       5.28261021       1.43391067
C         1.16889340       5.78479022       3.82163251
C         0.32120673       5.37036812       5.02106298
C         0.44310247       3.87657867       5.35796751
C         1.81555620       3.58118202       6.00001578
C        -0.66092190       3.44744953       6.33403822
C         0.33790022       3.07114570       4.11067110
N        -0.02434660       1.80076645       4.21260653
C        -0.03832740       1.05158930       3.12144512
C        -0.60413505      -0.31920463       3.15220639
C        -0.89023534      -1.01434419       4.32425445
C        -1.54041877      -2.23702018       4.21147530
C        -1.95093613      -2.69475534       2.96503005
C        -1.63618495      -1.93532687       1.83365923
C        -2.12929545      -2.22126757       0.45539639
C        -3.09722753      -3.19019088       0.18281821
C        -3.62795419      -3.26041010      -1.09781433
C        -3.18346063      -2.38740912      -2.08044954
C        -2.16375954      -1.49122877      -1.76197790
C        -1.55723924      -0.57061334      -2.76478274
C        -2.09037256      -0.28728258      -4.02779099
C        -1.41364316       0.60836754      -4.84726971
C        -0.21317952       1.17244893      -4.43379427
C         0.27661771       0.81010575      -3.17989830
C         1.56869557       1.28498272      -2.63410007
N         1.77144999       1.08364167      -1.32292747
N         3.00977853       1.16899933      -0.86667301
C         3.99703120       1.58446284      -1.62883014
C         3.66635141       2.13963293      -2.90962460
N         2.47087777       1.87388224      -3.40303328
C         4.63489195       2.95578567      -3.69251857
C         4.46991487       4.43921908      -3.30196522
C         4.33551697       2.80316636      -5.18540959
C         6.05501458       2.46044271      -3.36421204
C         6.33547577       2.39769863      -1.86597196
C         5.40295921       1.43233998      -1.12125262
C         5.79811786      -0.03105312      -1.39601606
C         5.46535041       1.68777411       0.38911021
N        -0.40230672      -0.01527513      -2.36849387
N        -1.65954569      -1.42023445      -0.51818443
N        -0.92526721      -0.80529289       1.94483907
N         0.36181329       1.49599011       1.92381090
N         0.62426056       2.78249490       1.77684360
C         0.57985235       3.60688761       2.80462865
H        -0.53306445       6.67651238       1.85842670
H        -1.40005567       5.41038625       2.71548071
H        -0.85568580       5.14027310       1.06380642
H         1.93167453       6.34309700       1.23545753
H         1.52499003       4.78442588       0.51148960
H         2.77202843       4.88809012       1.75087504
H         1.07617215       6.85944605       3.67215179
H         2.21876205       5.57222711       4.02659614
H        -0.72639975       5.60918257       4.83280517
H         0.63226774       5.94455378       5.89264732
H         1.90099540       4.15461573       6.91841653
H         2.63922521       3.85968741       5.34836899
H         1.91605004       2.52800501       6.24566893
H        -0.60603215       4.06379350       7.22488602
H        -0.55087226       2.40588143       6.61943263
H        -1.64306260       3.57601270       5.88562131
H        -0.61351584      -0.61107269       5.28544791
H        -1.75289142      -2.81464183       5.09821928
H        -2.49656915      -3.62241972       2.89206082
H        -3.44911766      -3.87233774       0.94026386
H        -4.39535007      -3.98432658      -1.32153191
H        -3.60498911      -2.41286910      -3.07150522
H        -3.00745412      -0.72607211      -4.39432955
H        -1.81929118       0.85685354      -5.81710960
H         0.33572345       1.86862935      -5.04747614
H         3.47994585       4.80026901      -3.56658151
H         5.20096339       5.02701987      -3.84909729
H         4.62473566       4.61234928      -2.24057883
H         3.35358369       3.19923847      -5.42386311
H         4.36311097       1.75649449      -5.47456998
H         5.08062032       3.33989210      -5.76146292
H         6.76946547       3.13753807      -3.82931889
H         6.20395084       1.47533616      -3.81075026
H         6.24362205       3.39531462      -1.43516778
H         7.36319144       2.07317526      -1.70849374
H         5.73167088      -0.27056449      -2.45291346
H         5.15020046      -0.71377973      -0.85111999
H         6.82015362      -0.20455233      -1.07428489
H         5.13903831       2.69643161       0.62514032
H         6.48676881       1.57596923       0.73886418
H         4.83951925       0.98436648       0.93106242
