58
strain_lig_013 ligand at complex geometry  charge=0 uhf=0  from=63|CC1(C)CCC(C)(C)c2nc(-c3cccc(-c4cccc(-c5ccccn5)n4)n3)nnc21|nitrate
C        -1.37295237      -1.07040172      -5.43062200
C        -2.23984148      -0.87769996      -4.16296733
C        -2.52332421      -2.23022019      -3.50561619
C        -3.57181658      -0.17153756      -4.49880834
C        -3.48436051       1.34220136      -4.67552021
C        -2.78063117       2.02391352      -3.49838805
C        -2.72589494       3.54259458      -3.62268104
C        -3.41751095       1.63407072      -2.14475515
C        -1.42189361       1.41812083      -3.41624558
N        -0.36960918       2.14207035      -3.13765725
C         0.63159496       1.53621410      -2.49721472
C         1.35664988       2.51510541      -1.63574525
C         2.09782759       3.64330135      -1.93765067
C         2.05773633       4.68419523      -1.01201965
C         1.19535561       4.62407320       0.07493190
C         0.52774288       3.43125210       0.33424551
C        -0.66438435       3.24752504       1.19964017
C        -1.30734614       4.28464728       1.87358143
C        -2.61288552       4.08819034       2.29841528
C        -3.23613447       2.86842159       2.07442334
C        -2.49113817       1.83365484       1.50157735
C        -3.01938595       0.46418309       1.25818231
C        -4.12264061      -0.05599836       1.92813682
C        -4.53600343      -1.35290312       1.66438929
C        -3.84694722      -2.09502300       0.71389880
C        -2.74340376      -1.52266353       0.09758007
N        -2.33208636      -0.27422569       0.35287728
N        -1.23654946       2.03385974       1.08000915
N         0.72600374       2.37135629      -0.45907163
N         0.54997688       0.28890909      -2.05665236
N        -0.41272621      -0.50646108      -2.54599361
C        -1.33660860      -0.01276346      -3.34128170
H        -1.89592379      -1.69449916      -6.14883230
H        -0.43419635      -1.55539885      -5.17080167
H        -1.15443842      -0.10993887      -5.89262344
H        -2.96344181      -2.90530818      -4.23506550
H        -3.23146405      -2.10399246      -2.68644146
H        -1.60566848      -2.67888267      -3.13171431
H        -4.29748304      -0.40020227      -3.71650836
H        -3.96318362      -0.60688173      -5.41692902
H        -4.48772118       1.74543192      -4.77751490
H        -2.93972417       1.58956331      -5.58404701
H        -3.72523539       3.95491591      -3.70857709
H        -2.14524277       3.84485169      -4.48875132
H        -2.25932826       3.97885594      -2.74206570
H        -4.46329969       1.92414571      -2.14228732
H        -2.89906751       2.14727331      -1.33161474
H        -3.34544771       0.56156444      -1.96714874
H         2.64704795       3.73495083      -2.85980948
H         2.62616710       5.58058334      -1.19644721
H         1.00841908       5.49877279       0.67434101
H        -0.83557849       5.24023656       2.03485706
H        -3.15289790       4.89204226       2.77503929
H        -4.27242689       2.74183068       2.33883437
H        -4.63482625       0.53106282       2.67335975
H        -5.37350240      -1.77620935       2.20009402
H        -4.13845228      -3.10663054       0.48720307
H        -2.17828162      -2.08015919      -0.65570954
