107
strain_lig_027 ligand at complex geometry  charge=0 uhf=0  from=66|CCCCCCC(CCCC)CCCN(C)C(=O)COCC(=O)N(C)CCCC(CCCC)CCCCCC|water
C        -8.02261367      -4.63234024       0.50613525
C        -8.84919353      -3.82189386      -0.49160305
C        -7.99762091      -3.17323234      -1.58825396
C        -8.85176228      -2.57922144      -2.71388768
C        -8.04700957      -2.04380246      -3.90691755
C        -7.24512956      -0.78884270      -3.56077899
C        -6.55311957      -0.10437714      -4.75203559
C        -5.58820463       0.98720323      -4.27557665
C        -6.26251425       2.15497353      -3.55699496
C        -5.23905303       3.18675619      -3.06617208
C        -4.61388228       2.77843937      -1.73253725
C        -5.85017828      -1.08652128      -5.70826921
C        -4.70934511      -1.91075865      -5.08513303
C        -3.30411963      -1.36698721      -5.42459627
N        -2.37914912      -1.54711893      -4.31419769
C        -2.11790694      -2.93709942      -3.98805117
C        -1.81804167      -0.59728281      -3.59851840
O        -1.15778968      -0.85769302      -2.55338012
C        -1.88879651       0.86368457      -4.03598854
O        -0.92778267       1.54266695      -3.23083756
C        -1.13919812       2.93528529      -3.02934473
C        -1.26441645       3.13784982      -1.51634475
O        -1.37616426       2.10159209      -0.81047856
N        -1.28793734       4.34744254      -0.99482819
C        -1.22091314       5.55957101      -1.78558878
C        -1.50620379       4.48921350       0.44693288
C        -0.29807623       4.04323622       1.27188901
C        -0.61029897       4.04177522       2.77684076
C        -0.96409362       2.68348795       3.42066373
C        -2.19376288       2.89152159       4.31537015
C        -2.60878774       1.70835344       5.18825380
C        -3.88300781       2.01286497       5.97924948
C        -4.05466650       1.04226848       7.14069614
C         0.18775936       2.10981889       4.25764662
C         1.49102769       1.91670966       3.46975870
C         2.00927988       0.47323008       3.33736519
C         2.90980661      -0.00643981       4.48240803
C         3.79585652      -1.19125148       4.08659413
C         5.09812784      -0.84552041       3.37303468
H        -8.68078403      -5.09173592       1.23806827
H        -7.31458790      -4.00485139       1.04842946
H        -7.47038080      -5.42772758       0.00728944
H        -9.39402575      -3.04165743       0.04560348
H        -9.58644962      -4.48279635      -0.95264648
H        -7.32364840      -3.92764828      -2.00688745
H        -7.38588125      -2.38552712      -1.13975241
H        -9.48067134      -1.77907971      -2.31468499
H        -9.51607047      -3.36015975      -3.08675695
H        -8.74550598      -1.80274999      -4.71250083
H        -7.37473696      -2.82784873      -4.26377827
H        -6.50751809      -1.03393916      -2.79734947
H        -7.93324163      -0.06295450      -3.12803667
H        -7.32663681       0.37898103      -5.35144575
H        -5.06132477       1.38730068      -5.14957347
H        -4.86686456       0.52882852      -3.59286605
H        -6.81857617       1.79542191      -2.68967417
H        -6.96919631       2.63396716      -4.23637986
H        -5.73253578       4.15038966      -2.93486444
H        -4.46080855       3.33438968      -3.82470660
H        -5.40415502       2.59733723      -1.00864534
H        -3.96732116       3.56155838      -1.33932285
H        -4.02374444       1.86430900      -1.81518087
H        -5.48657253      -0.54810461      -6.58811850
H        -6.60624231      -1.77801525      -6.07206521
H        -4.77163716      -2.94256373      -5.43599481
H        -4.83388574      -1.90833924      -4.00418348
H        -3.37858284      -0.31294731      -5.67905915
H        -2.90485518      -1.91292787      -6.28552546
H        -3.04986892      -3.46774144      -3.81698058
H        -1.51281555      -2.99704382      -3.08830475
H        -1.60136232      -3.39962582      -4.82902207
H        -2.90475121       1.25139892      -3.89228883
H        -1.61555351       0.96674416      -5.09373726
H        -2.06144764       3.28793220      -3.50880247
H        -0.28425212       3.46921210      -3.46489631
H        -0.64944098       5.39885814      -2.69538739
H        -0.73341272       6.34417142      -1.20782230
H        -2.22411829       5.89961878      -2.05724687
H        -2.38760517       3.90993062       0.73058709
H        -1.69891442       5.53926650       0.65753809
H         0.50246248       4.75479423       1.07740883
H         0.02623231       3.05771306       0.92690936
H        -1.44057257       4.73024042       2.93274947
H         0.23797032       4.45823407       3.31208858
H        -1.19748846       1.97042659       2.62749999
H        -3.03921148       3.17882375       3.68628708
H        -1.97674420       3.73179754       4.97720753
H        -1.81382316       1.48888929       5.90166539
H        -2.77347201       0.81471717       4.58154804
H        -4.75955799       1.96091441       5.32764366
H        -3.81612887       3.03020571       6.36695399
H        -4.07301870       0.01373005       6.78429927
H        -4.97742235       1.25066277       7.67267558
H        -3.23400006       1.15111757       7.84451950
H        -0.11604492       1.15558977       4.68348684
H         0.35162208       2.77903064       5.10228238
H         2.26885754       2.52389969       3.92703884
H         1.35530645       2.29672832       2.45642975
H         2.60861292       0.43242125       2.42855719
H         1.16388314      -0.21415638       3.21029138
H         2.28993482      -0.28420607       5.33414076
H         3.55684696       0.80331277       4.81448889
H         3.22248259      -1.84311732       3.42972856
H         4.03360121      -1.76833664       4.97740669
H         4.91900157      -0.42715598       2.38162057
H         5.68039631      -1.75652409       3.26583778
H         5.70076514      -0.13154529       3.92551500
