72
strain_lig_143 ligand at complex geometry  charge=0 uhf=0  from=66|CCN(C(=O)c1cccc(-c2cccc(C(=O)N(CC)c3cc(C)ccc3C)n2)n1)c1cc(C)ccc1C|nitrate
C         3.20761675      -4.75169777      -1.39707051
C         3.06410918      -3.31618520      -1.87562635
N         3.59304333      -2.36788585      -0.89882592
C         2.83273779      -1.37499418      -0.47854026
O         1.73779920      -1.10365741      -1.02978425
C         3.20417859      -0.49998587       0.68542002
C         4.47514554      -0.05100454       1.02693582
C         4.57249818       0.87770111       2.05074617
C         3.43057494       1.34685735       2.68358470
C         2.18917864       0.83185648       2.29950506
C         0.89894385       1.24145625       2.91141333
C         0.83632608       1.99113861       4.08743686
C        -0.41004375       2.16100534       4.66026004
C        -1.55977602       1.74667176       3.99907189
C        -1.43442338       1.17532236       2.73029642
C        -2.50876414       0.86092707       1.69116840
O        -2.09749024       0.39796989       0.59474107
N        -3.81411216       1.08152886       1.85581419
C        -4.44118716       1.84104770       2.93410061
C        -4.03185885       3.30996869       2.91209869
C        -4.73850812       0.44118662       0.94442601
C        -4.68310505      -0.95375924       0.88346146
C        -5.60505051      -1.68906230       0.15797287
C        -5.62274801      -3.18480168       0.11559326
C        -6.59017795      -0.99087859      -0.53493867
C        -6.63708025       0.38285987      -0.48984174
C        -5.72756226       1.13891741       0.24675004
C        -5.89493693       2.62697815       0.21984380
N        -0.21292481       0.85455662       2.27593432
N         2.10309353      -0.07533502       1.31797826
C         4.88532132      -2.63656810      -0.35054590
C         4.95122376      -3.06141319       0.97156006
C         6.16675131      -3.31218711       1.58141354
C         6.24779416      -3.72016479       3.01416468
C         7.32008712      -3.15152002       0.81487569
C         7.24938570      -2.73133596      -0.49717356
C         6.03188991      -2.44520487      -1.11659479
C         5.99192405      -1.90951725      -2.51620501
H         2.78739672      -5.40018179      -2.15851351
H         2.68180443      -4.90836753      -0.45898480
H         4.25010198      -5.01985738      -1.25715188
H         2.01124508      -3.06022749      -2.02507330
H         3.59244693      -3.19374279      -2.82205557
H         5.35395549      -0.36670168       0.48932931
H         5.54631988       1.25285525       2.31773906
H         3.53734158       2.12240350       3.42486232
H         1.71608108       2.40115417       4.56018002
H        -0.49872250       2.64440096       5.61745957
H        -2.49985111       1.89390117       4.49704542
H        -4.21531354       1.35901292       3.88806987
H        -5.52179225       1.74901212       2.80620871
H        -2.96301826       3.43918345       3.04144208
H        -4.54709890       3.83449565       3.70717458
H        -4.30556034       3.78417433       1.97680902
H        -3.91531960      -1.45852849       1.45392148
H        -4.82689109      -3.63611723       0.70213551
H        -5.54233352      -3.51508934      -0.91932432
H        -6.57867544      -3.53567808       0.50302817
H        -7.33175178      -1.53253890      -1.09996861
H        -7.41771943       0.89690017      -1.02641856
H        -6.65722105       2.87545169      -0.51376333
H        -4.96777856       3.12721077      -0.05359218
H        -6.23420001       3.00774390       1.18063863
H         4.03098422      -3.19597084       1.52051901
H         5.26173080      -3.77243625       3.46974594
H         6.85096444      -2.99752095       3.56153474
H         6.72854501      -4.69286415       3.10188624
H         8.28102057      -3.34450651       1.26756675
H         8.16414067      -2.60771261      -1.05405303
H         6.68714857      -1.07613330      -2.60456197
H         4.99659625      -1.56308574      -2.78731512
H         6.30443356      -2.67611419      -3.22458125
