149
strain_lig_082 ligand at complex geometry  charge=0 uhf=0  from=63|CCCCCCCCN(CCCCCCCC)C(=O)COCC(=O)NCCCCCCCNC(=O)COCC(=O)N(CCCCCCCC)CCCCCCCC|nitrate
C        -9.75453900      -2.61397892       7.28611120
C        -8.48301874      -2.24346143       6.53531170
C        -8.40962326      -0.75293971       6.21742762
C        -7.09473372      -0.33499131       5.54993321
C        -6.92641561      -0.86513917       4.12187245
C        -5.98387875      -0.01005945       3.26650419
C        -4.48143772      -0.12576567       3.60742027
C        -3.79913190       1.26055536       3.55252909
N        -2.46017186       1.43099420       2.96325405
C        -1.50339559       2.27549594       3.69910593
C        -0.02783599       1.83788698       3.75704947
C         0.43980497       1.32120411       5.12757248
C         1.57438592       2.09631718       5.81498691
C         2.98277726       1.52756523       5.58990791
C         3.19344627       0.08771413       6.06091507
C         4.63373208      -0.41148913       5.91768098
C         5.13041581      -0.52498251       4.47875972
C        -2.27402286       1.32447721       1.66004051
O        -1.21209765       1.68557586       1.09526749
C        -3.34977548       0.69624492       0.78690421
O        -2.66267403      -0.33278899       0.08126607
C        -3.44686534      -1.37479654      -0.49800320
C        -2.61302779      -1.81178603      -1.69102643
O        -1.64010901      -1.06502117      -1.96684517
N        -2.88927999      -2.88766974      -2.40703928
C        -3.76538406      -4.01993157      -2.11939134
C        -3.17537501      -5.34319005      -2.68197512
C        -2.92662204      -6.39050063      -1.58348670
C        -1.91665004      -7.48444138      -1.96039344
C        -0.43903859      -7.06967057      -1.86235576
C         0.32704649      -7.55944312      -0.61396667
C         1.14746543      -6.45314381       0.04637984
N         1.71334286      -6.85591896       1.32798043
C         2.04753838      -5.97663580       2.28614648
O         1.83175247      -4.77361879       2.18416297
C         2.71740605      -6.59533085       3.52934178
O         2.44902033      -5.87659286       4.71197416
C         3.38655062      -4.89745309       5.11353756
C         3.86184836      -4.77502098       6.58001510
O         4.23051911      -3.65150176       6.88965045
N         4.04224271      -5.85118367       7.35786866
C         3.26715447      -7.07444872       7.27617710
C         2.40740366      -7.31659264       8.52627843
C         1.05591587      -6.60599214       8.51056593
C         0.03545936      -7.26184089       7.57595596
C        -1.40691582      -7.02566479       8.03001261
C        -2.43615113      -7.77712686       7.18145137
C        -3.81865029      -7.79946941       7.83775399
C        -4.90435119      -8.32102993       6.90169593
C         5.01782794      -5.79828592       8.44966791
C         6.38601118      -5.23494861       8.03551344
C         6.91193337      -5.74987108       6.68620371
C         7.50434103      -4.61422161       5.84763891
C         7.53127220      -4.90548389       4.34848740
C         8.17697060      -3.74896989       3.58734466
C         7.96335100      -3.83453295       2.07776831
C         8.66251285      -2.68547109       1.36105006
H        -9.77399487      -3.67940144       7.50412020
H       -10.63752287      -2.36490039       6.70386147
H        -9.80924410      -2.07533691       8.22822389
H        -8.42798688      -2.82107156       5.61091832
H        -7.62631228      -2.50812932       7.15561387
H        -8.50703268      -0.19657791       7.15259725
H        -9.25451808      -0.47329627       5.58391191
H        -6.26918567      -0.67169286       6.18213444
H        -7.06524191       0.75624128       5.52027328
H        -7.90589767      -0.84282725       3.63768368
H        -6.58957618      -1.90346035       4.12891006
H        -6.29746293       1.02918553       3.37695269
H        -6.14649672      -0.28782410       2.22384126
H        -4.00112460      -0.86786382       2.96806327
H        -4.39939492      -0.49244119       4.62591413
H        -3.71696182       1.59548406       4.57673256
H        -4.45882747       1.96810765       3.04281996
H        -1.89220034       2.38764755       4.70769983
H        -1.53112623       3.25270464       3.21280385
H         0.56686979       2.71518398       3.49342767
H         0.13126786       1.08969737       2.98391572
H         0.78397963       0.29955313       5.01659252
H        -0.40680207       1.29646936       5.80767775
H         1.39403925       2.09568368       6.89078045
H         1.57286257       3.13896011       5.48760854
H         3.68555130       2.15849447       6.13715885
H         3.24455469       1.60366638       4.53283947
H         2.54429286      -0.60380408       5.51819712
H         2.91728314       0.02090537       7.11347764
H         4.68254370      -1.39983599       6.37799577
H         5.29624201       0.25211702       6.47353054
H         4.51122079      -1.20850956       3.89795110
H         6.14214166      -0.91997956       4.48389249
H         5.15455230       0.44236504       3.97814006
H        -3.69930619       1.47397490       0.09547918
H        -4.19536375       0.32135546       1.35010661
H        -4.41242857      -1.00922735      -0.86295157
H        -3.62378694      -2.16697206       0.24641930
H        -2.32999694      -3.01057074      -3.24454635
H        -4.74921100      -3.79754165      -2.54981324
H        -3.87750579      -4.09566419      -1.03410702
H        -2.22110030      -5.15422736      -3.17765882
H        -3.84727320      -5.76179889      -3.43334136
H        -3.87769798      -6.85875168      -1.32054340
H        -2.55141821      -5.86882495      -0.70998371
H        -2.11736999      -7.80815708      -2.97754728
H        -2.08399405      -8.34657234      -1.32351091
H        -0.39837264      -5.99113493      -1.89360319
H         0.06158727      -7.43366127      -2.75900884
H         1.01126056      -8.36116949      -0.89581869
H        -0.37571136      -7.96076652       0.11497957
H         1.95147280      -6.14648150      -0.62414359
H         0.52409944      -5.58389626       0.22532838
H         1.94278278      -7.83335745       1.43455563
H         3.80261038      -6.67024179       3.33563515
H         2.33659264      -7.61511454       3.68541270
H         3.01383061      -3.90353924       4.84171357
H         4.33385513      -5.04048129       4.57842551
H         3.96118600      -7.91451911       7.15734494
H         2.61970299      -7.00706467       6.40685146
H         2.95043451      -6.99114019       9.41165492
H         2.26047919      -8.39357168       8.60959494
H         1.20986505      -5.55689502       8.25067830
H         0.65455359      -6.63328560       9.52385662
H         0.20839427      -8.33889534       7.57114349
H         0.16496946      -6.90241148       6.55231998
H        -1.63045634      -5.95613123       8.00920274
H        -1.50964837      -7.35554961       9.06465211
H        -2.50254040      -7.30392308       6.19766659
H        -2.10279328      -8.80545017       7.03068168
H        -4.07301201      -6.79027047       8.16470975
H        -3.78260222      -8.43235789       8.72592505
H        -4.95536011      -7.72084527       5.99308613
H        -5.87568091      -8.27751015       7.38960275
H        -4.70593912      -9.35216483       6.61790996
H         5.14466460      -6.82641606       8.79219371
H         4.63641960      -5.19795588       9.28365889
H         7.08951741      -5.47090256       8.83653077
H         6.29418842      -4.15196529       7.97979972
H         6.09497384      -6.20204266       6.12148017
H         7.66852845      -6.51927779       6.84035976
H         8.51989571      -4.40580347       6.18493053
H         6.91076096      -3.70987591       6.00386649
H         6.50873905      -5.05180367       3.98427476
H         8.07967866      -5.82909172       4.15531196
H         9.24634413      -3.74676286       3.80420199
H         7.76505585      -2.80449732       3.95605596
H         6.88921298      -3.80795267       1.85944370
H         8.35494944      -4.78686612       1.71359870
H         8.27870204      -1.72577193       1.70475224
H         8.52149962      -2.74627480       0.28390887
H         9.72907903      -2.71426102       1.56698210
