32
strain_lig_171 ligand at complex geometry  charge=0 uhf=0  from=70|O=c1c(O)c(-c2ccc(O)c(O)c2)oc2cc(O)cc(O)c12|nitrate
O        -1.79790326      -1.19218173      -0.05338105
C        -1.73154894      -1.41753522       1.12947281
C        -1.09477555      -2.70887821       1.12121543
O        -0.79256827      -2.36495528      -0.14021467
C        -0.06541873      -2.69729638       1.95364104
C         1.35141235      -3.15139895       1.38018834
C         2.39761612      -2.57014032       2.09523405
C         3.00391043      -1.46945581       1.50620065
C         2.45340158      -1.04446085       0.29279184
O         2.21183069       0.26261830       0.14840001
C         1.70269768      -1.85780370      -0.55330695
O         0.83045251      -1.23134634      -1.49638536
C         1.50935149      -3.12856470      -0.03932579
O        -0.06030169      -1.35277044       2.41373495
C        -1.52788442      -0.92709846       3.18107654
C        -2.34109442       0.22025564       3.45787196
C        -2.30812138       1.63339448       2.83182425
O        -2.34556238       1.59412908       1.10858416
C        -1.01702935       1.93616669       2.71574750
C        -0.58371657       0.82345430       2.08819510
O         0.53364805       0.76720688       1.47651341
C        -1.44799490      -0.35216472       2.02804083
H        -0.71033653      -3.07770651      -0.76124419
H         2.46778320      -2.68216379       3.17460240
H         3.58744785      -0.79489389       2.12316468
H         2.77374815       0.92670381       0.59142871
H         0.36776900      -1.79079100      -2.13016480
H         0.98890740      -3.87670448      -0.62611776
H        -3.04283356       0.12760441       4.29746565
H        -3.26606664       1.35257339       0.87461071
H        -0.58055989       2.91087594       2.60670984
H         1.20061579       1.54735192       1.55625493
