119
strain_lig_068 ligand at complex geometry  charge=0 uhf=0  from=63|CCCCCCCCN(CCCCCCCC)C(=O)CCOCCC(=O)N(CCCCCCCC)CCCCCCCC|nitrate
C         4.50666999      -6.28871328      -6.04050779
C         3.50598994      -5.29707993      -5.45381221
C         4.07575147      -3.87806262      -5.34161920
C         3.22001034      -2.98233382      -4.43008734
C         2.82678124      -1.62893500      -5.01998439
C         1.90076471      -1.72263737      -6.23194272
C         1.22936338      -0.38684582      -6.55993656
C         0.04943123      -0.00957340      -5.64770130
N         0.36705167       0.53737776      -4.32443771
C         1.21453785       1.72495076      -4.27501322
C         0.34887281       2.97703985      -4.50226639
C         1.11513559       4.28611597      -4.27803866
C         0.15555789       5.46268948      -4.08189321
C         0.84713279       6.76943012      -3.68502274
C         1.65274095       6.68261219      -2.37867083
C         1.36218081       7.83722828      -1.42064951
C         2.21124617       7.73411270      -0.15890082
C        -0.29941475       0.23143815      -3.20957250
O         0.01599027       0.66744083      -2.08368568
C        -1.53381761      -0.62946411      -3.28677075
C        -2.55991029      -0.25877490      -2.20904550
O        -2.35042498      -0.94484553      -0.97036135
C        -3.04427027      -2.20070146      -0.86597144
C        -3.30730316      -2.56332342       0.59715555
C        -2.00342953      -2.92967445       1.28844533
O        -0.93107504      -2.56499061       0.76620887
N        -2.04834257      -3.69866071       2.38276820
C        -3.19341462      -3.65919142       3.28402376
C        -3.93673671      -4.93492499       3.67613300
C        -4.92447314      -4.57797393       4.79287600
C        -4.27959516      -4.60581700       6.17697592
C        -5.29111897      -4.42277706       7.31098566
C        -5.74802408      -2.97918966       7.56269998
C        -7.04788770      -2.58625331       6.85992871
C        -7.52898503      -1.21289174       7.31972692
C        -0.79964599      -4.17500927       2.96299765
C        -0.67369725      -5.68954084       3.17041402
C        -0.83071503      -6.59665977       1.94664739
C        -2.25114900      -6.63929802       1.39188869
C        -2.50622461      -7.71810068       0.34191194
C        -4.00693204      -7.97735320       0.16433671
C        -4.85542286      -6.72969234      -0.09706650
C        -4.48829260      -6.00418349      -1.38752492
H         4.05269273      -7.27460434      -6.12801572
H         5.38028974      -6.38084603      -5.39669230
H         4.83523819      -5.96564978      -7.02639627
H         3.21159522      -5.65347620      -4.45925399
H         2.61054793      -5.27370809      -6.08326189
H         4.15489152      -3.44933255      -6.34126107
H         5.08881903      -3.94081886      -4.94408673
H         3.75131023      -2.79977143      -3.49277221
H         2.30397464      -3.51268053      -4.17315899
H         3.72573550      -1.07797205      -5.29718844
H         2.32141980      -1.06064347      -4.23646964
H         1.14023017      -2.48927617      -6.06678557
H         2.47602443      -2.03682060      -7.10279814
H         0.80435606      -0.46106572      -7.56317467
H         1.98851504       0.39432364      -6.59337553
H        -0.53829507      -0.91959939      -5.53184446
H        -0.56041853       0.72950821      -6.17614384
H         1.99370008       1.64154244      -5.02914528
H         1.68092912       1.76790061      -3.28495569
H        -0.49417072       2.93849121      -3.79730377
H        -0.06176115       2.96394886      -5.51528268
H         1.76043479       4.50664730      -5.13122878
H         1.75055880       4.15965001      -3.39476015
H        -0.56336012       5.19146317      -3.30490756
H        -0.40007151       5.61389114      -5.01206296
H         0.06644497       7.52252264      -3.58130837
H         1.49593080       7.08991913      -4.49867574
H         2.72142915       6.65566011      -2.60278417
H         1.40101370       5.75500313      -1.85611985
H         0.30448840       7.81373226      -1.14984918
H         1.54277885       8.78404572      -1.92663761
H         1.95950446       6.83748395       0.40952998
H         2.07422733       8.60053971       0.48054486
H         3.26532100       7.67971724      -0.41526575
H        -1.21311480      -1.64854333      -3.10665404
H        -2.00589493      -0.55460033      -4.25717294
H        -3.58109125      -0.46603621      -2.54902686
H        -2.49258350       0.81585826      -1.99790212
H        -2.45147640      -2.99732938      -1.32960670
H        -4.00972221      -2.11888227      -1.38158819
H        -4.01881102      -3.39124039       0.64590755
H        -3.73444273      -1.68251766       1.07927617
H        -3.92451883      -2.97784437       2.86111684
H        -2.82084740      -3.22380480       4.21764858
H        -3.25596297      -5.68707472       4.06331370
H        -4.46861256      -5.35634614       2.82375035
H        -5.75736114      -5.27928832       4.77683398
H        -5.32897009      -3.58407807       4.60639754
H        -3.50631618      -3.83508403       6.25104033
H        -3.78575410      -5.57052662       6.31497830
H        -4.82862846      -4.80109738       8.22183418
H        -6.16053121      -5.05192834       7.11582748
H        -4.95663769      -2.28452319       7.26700828
H        -5.89981983      -2.84953160       8.63595589
H        -7.81759344      -3.32624127       7.08665529
H        -6.90476380      -2.57783815       5.77633036
H        -7.74767280      -1.22534446       8.38496758
H        -8.43816344      -0.92762209       6.79500228
H        -6.76748422      -0.45338810       7.13976448
H        -0.67309299      -3.69583052       3.94129188
H         0.00121453      -3.83167842       2.30807611
H        -1.37450163      -6.01505709       3.93549303
H         0.32698155      -5.84004791       3.58107838
H        -0.56084055      -7.60496556       2.26554228
H        -0.12830871      -6.29730342       1.16645957
H        -2.49579963      -5.67027126       0.96170886
H        -2.93462159      -6.83435845       2.21477840
H        -2.03980082      -8.65019672       0.65805738
H        -2.05452202      -7.44684737      -0.61227358
H        -4.38178509      -8.45369605       1.07243937
H        -4.15137464      -8.68396398      -0.65561102
H        -4.76833932      -6.03395011       0.74313959
H        -5.90078335      -7.03955124      -0.14948060
H        -3.46635217      -5.62810673      -1.34455159
H        -5.15744884      -5.15949565      -1.54682625
H        -4.57587652      -6.67696665      -2.23765997
