59
strain_lig_138 ligand at complex geometry  charge=0 uhf=0  from=63|CCCCP(=S)(CCCC)CP(=S)(CCCC)CCCC|nitrate
C        -3.75334827      -6.39641934      -5.82602178
C        -2.56312577      -5.68431669      -5.20213574
C        -3.03363553      -4.43913123      -4.45571512
C        -1.84693522      -3.71241367      -3.84539828
P        -2.16935686      -2.32665616      -2.69505939
S        -0.33969041      -1.80673123      -2.13278817
C        -3.38971846      -1.39450137      -3.73858073
C        -4.20427403      -0.14057592      -3.42163484
C        -4.99167680      -0.13299988      -2.11454841
C        -5.94910149       1.05395175      -2.05203657
C        -3.20071094      -2.80586842      -1.23850605
P        -2.26468682      -3.54708025       0.15892492
S        -1.36223214      -2.13862600       1.20658785
C        -3.49463803      -4.38434507       1.22450913
C        -4.44757125      -3.45802094       1.97411528
C        -5.56352024      -2.87411468       1.10917883
C        -6.69238184      -2.27907014       1.94265209
C        -1.14004327      -4.87036285      -0.41052576
C        -1.85077212      -6.05788998      -1.06034404
C        -0.85744428      -7.03303274      -1.69768149
C         0.02067805      -7.73567015      -0.66962679
H        -3.43682730      -7.27811513      -6.37262625
H        -4.26969750      -5.72559586      -6.51218620
H        -4.45952822      -6.69617125      -5.05226519
H        -1.84865343      -5.39559389      -5.97528498
H        -2.04416732      -6.35659333      -4.51420475
H        -3.75128050      -4.73712593      -3.68682308
H        -3.55495430      -3.79863963      -5.16600913
H        -1.24274839      -3.24463187      -4.63437962
H        -1.18508779      -4.41746617      -3.33541392
H        -4.09659045      -2.21369617      -3.91397120
H        -2.84762754      -1.22759700      -4.67332999
H        -4.90485929      -0.04269810      -4.25351534
H        -3.57665091       0.74932114      -3.42593326
H        -4.29947844      -0.04644597      -1.26928385
H        -5.56869598      -1.05971884      -2.03268548
H        -5.40130989       1.98797767      -2.10794760
H        -6.50596037       1.02398006      -1.11686975
H        -6.67129748       1.03096314      -2.86227563
H        -4.03916902      -3.43098289      -1.55250002
H        -3.58915784      -1.86061349      -0.83646496
H        -2.88449816      -4.93810550       1.94527187
H        -4.04315757      -5.11036191       0.62071272
H        -3.87465423      -2.64248167       2.42289629
H        -4.90474679      -4.02936493       2.78449144
H        -5.97539128      -3.65948026       0.47123412
H        -5.16799907      -2.08707183       0.46444065
H        -7.13428979      -3.03150929       2.58754489
H        -7.46887530      -1.88570701       1.29162393
H        -6.32769393      -1.46596073       2.56521304
H        -0.61073733      -5.18857327       0.49342469
H        -0.40007095      -4.43322852      -1.08942710
H        -2.54934385      -5.71366203      -1.82348390
H        -2.42799211      -6.60389143      -0.31469778
H        -0.22547229      -6.50106053      -2.41419302
H        -1.41651559      -7.78921777      -2.25267848
H         0.69896636      -7.03997224      -0.17912910
H         0.62159435      -8.50120584      -1.15100755
H        -0.59067059      -8.21940530       0.09039780
