63
strain_lig_114 ligand at complex geometry  charge=0 uhf=0  from=63|CCCCCCN(CCCCCC)C(=O)COCC(=O)N1CCCC1|nitrate
C        -0.45226651       5.54721011       0.47938085
C        -1.40418723       6.29411723       1.41763009
C        -1.02641115       6.18329073       2.89859556
C        -1.08749396       4.75460885       3.45003155
C        -2.50883105       4.25660504       3.73121897
C        -2.56843458       2.79864022       4.23037021
N        -2.68149010       1.80862209       3.16499250
C        -4.02793171       1.44935873       2.70779161
C        -4.37388121      -0.00043289       3.06203899
C        -5.83408391      -0.31153444       2.73345884
C        -6.24636363      -1.73675038       3.11620722
C        -5.51809878      -2.86063494       2.37028382
C        -5.75961503      -2.84996336       0.86234470
C        -1.64423081       1.20562732       2.60843696
O        -1.74661369       0.42206675       1.64327205
C        -0.25032689       1.45225966       3.19205019
O         0.70909530       0.76810988       2.39339185
C         1.34604167      -0.32742403       3.02869553
C         0.81503237      -1.66872872       2.51284798
O         0.24329215      -1.73230576       1.39693634
N         1.03998484      -2.72886011       3.26450392
C         1.74787144      -2.77085344       4.54124628
C         1.37331047      -4.12972084       5.13087756
C         1.27292579      -5.00188353       3.88373249
C         0.55826616      -4.06667028       2.91246679
H        -0.72858272       5.73845694      -0.55566663
H         0.56465829       5.90376859       0.62861532
H        -0.46432175       4.46456438       0.63325631
H        -1.38071428       7.35208735       1.15061411
H        -2.42865480       5.94573609       1.26698088
H        -0.00612040       6.55317005       3.01701715
H        -1.68043269       6.82947382       3.48567472
H        -0.60251585       4.10949128       2.71497113
H        -0.51771760       4.72001750       4.38130263
H        -2.94449240       4.89283249       4.50272940
H        -3.12173767       4.37701294       2.83841339
H        -1.69122941       2.59914496       4.84517630
H        -3.43917942       2.67549406       4.87201144
H        -4.73814077       2.13452135       3.17364869
H        -4.07351600       1.58139778       1.62396733
H        -3.71385778      -0.66533049       2.50209896
H        -4.20375865      -0.16568591       4.12791083
H        -6.47576959       0.38052766       3.28236206
H        -6.01679868      -0.15346311       1.66798580
H        -6.08881580      -1.87575248       4.18755821
H        -7.31646039      -1.83962684       2.93016902
H        -4.44316588      -2.81359849       2.56992375
H        -5.87984887      -3.81136753       2.76947466
H        -5.36263050      -1.94432294       0.40241071
H        -5.27491385      -3.70905836       0.40230730
H        -6.82524012      -2.90676113       0.65453624
H         0.00317206       2.51867635       3.15792484
H        -0.23123380       1.11645683       4.23957801
H         2.40126180      -0.26365061       2.73578764
H         1.25327066      -0.24446048       4.11518152
H         2.82751042      -2.71911551       4.37115736
H         1.46255972      -1.95534258       5.20065633
H         2.10731206      -4.49150670       5.84600988
H         0.40406582      -4.07686346       5.62745145
H         2.26876824      -5.26924043       3.52543832
H         0.70899594      -5.91457022       4.05549005
H         0.76129696      -4.27188431       1.86244531
H        -0.52291518      -4.09820121       3.07648969
