122
strain_lig_093 ligand at complex geometry  charge=0 uhf=0  from=66|CCCCCCCCN(CCCCCCCC)C(=O)[C@H](C)O[C@@H](CC)C(=O)N(CCCCCCCC)CCCCCCCC|nitrate
C         1.62513870       8.88968135       3.84138864
C         0.54067571       7.83998402       3.63204992
C        -0.26156460       7.62837008       4.91542890
C        -1.44311296       6.66779796       4.76976553
C        -1.05857996       5.21764044       4.46593694
C        -0.26418951       4.55275639       5.59243701
C         0.28366862       3.16845709       5.23640112
C         1.35295555       3.27989997       4.14325376
N         1.61113474       2.05135553       3.41076113
C         2.84226078       1.32370393       3.71302607
C         4.02960544       1.61438860       2.78618141
C         4.60241761       3.03277445       2.85955089
C         6.04880888       3.19967572       2.35277594
C         6.25516505       3.52974822       0.86436180
C         6.44437519       2.31854034      -0.04908620
C         7.00128266       2.65846265      -1.43423237
C         6.07407843       3.51415954      -2.28950624
C         0.78710673       1.54029965       2.50164375
O         1.07499501       0.53841240       1.82263600
C        -0.59080253       2.17406214       2.19767293
C        -0.43025468       3.29415577       1.17665798
O        -1.35273582       1.15267442       1.55007539
C        -2.44125696       0.57998234       2.29544332
C        -3.69784955       1.41031847       1.96420260
C        -4.16467190       1.27154628       0.51908310
C        -2.40389234      -0.93631498       1.95523277
O        -1.48803284      -1.32341505       1.19825614
N        -3.20929240      -1.81179120       2.53389628
C        -2.97010632      -3.23595799       2.26805239
C        -2.49971014      -4.00329010       3.50609679
C        -2.72751002      -5.51841303       3.38877540
C        -1.56281318      -6.34470356       2.84285480
C        -1.33665917      -6.27608747       1.33331834
C        -0.19055547      -7.20216400       0.91492062
C         0.11096911      -7.14878214      -0.58376192
C         1.34506410      -7.96767681      -0.94927946
C        -4.31137051      -1.47085085       3.41599252
C        -5.65448836      -1.26779553       2.70386748
C        -6.30408787      -2.53653645       2.15411165
C        -6.57288260      -3.61081240       3.20458082
C        -7.40238506      -4.74987901       2.61400292
C        -7.84644000      -5.78060339       3.65218275
C        -6.70741652      -6.57573461       4.29211138
C        -6.01075153      -7.51697143       3.31716869
H         2.18774443       9.05857561       2.92683832
H         2.31916890       8.57148963       4.61581242
H         1.18334609       9.83259245       4.15107291
H         1.01083023       6.90509280       3.31321460
H        -0.13126606       8.16360419       2.83325911
H        -0.65957367       8.59574497       5.22564982
H         0.41012907       7.29379985       5.70794096
H        -2.07944553       7.03018615       3.95806077
H        -2.03343730       6.69378197       5.68628865
H        -0.49253036       5.21848430       3.53463238
H        -1.97512067       4.64743709       4.29126334
H        -0.91519244       4.46123488       6.46209499
H         0.57871562       5.18360254       5.87013052
H        -0.53118066       2.51460918       4.92769091
H         0.73010806       2.71461870       6.12077768
H         2.28558447       3.59028229       4.61171279
H         1.07545229       4.06216151       3.43792451
H         2.60044007       0.26472513       3.60608251
H         3.11114174       1.52406875       4.74979858
H         3.70577107       1.36677008       1.77973576
H         4.81063940       0.90772488       3.07487335
H         4.60513138       3.32405349       3.91078849
H         3.95814446       3.73508810       2.32825150
H         6.63099527       2.31513618       2.61202454
H         6.47691707       4.02843070       2.91686678
H         7.16380469       4.12724419       0.78103460
H         5.43012307       4.15220474       0.51367774
H         5.50167221       1.79528511      -0.18464549
H         7.13938638       1.62628890       0.43093508
H         7.19445404       1.72154503      -1.96394441
H         7.95559410       3.17338549      -1.32093928
H         5.10946231       3.02703860      -2.42760212
H         6.51666676       3.66603440      -3.26986962
H         5.91088385       4.48945171      -1.84053358
H        -1.10705028       2.52876866       3.09356448
H        -0.15589002       2.82974599       0.22474194
H         0.33416927       4.00551207       1.47238753
H        -1.37531015       3.81222582       1.04558439
H        -2.22140914       0.64847349       3.37607383
H        -3.43420639       2.45780031       2.14172662
H        -4.50488042       1.17204581       2.65117966
H        -3.42258241       1.67944164      -0.16202398
H        -5.09645254       1.81390984       0.37825959
H        -4.32741880       0.23229008       0.24472977
H        -2.21571955      -3.29868003       1.48366737
H        -3.89738226      -3.67048194       1.90052855
H        -3.06796093      -3.65283629       4.36832362
H        -1.44941130      -3.78547358       3.70333588
H        -3.61686157      -5.70048652       2.78687219
H        -2.93874021      -5.89860607       4.38829866
H        -1.75604539      -7.38820216       3.09607544
H        -0.64976992      -6.05801105       3.36921434
H        -1.10608098      -5.25477391       1.02074422
H        -2.24843064      -6.58304617       0.81774502
H        -0.44411979      -8.22946171       1.18437240
H         0.71047282      -6.93440086       1.47473984
H         0.25983067      -6.11033058      -0.89416357
H        -0.74773327      -7.53334904      -1.13672192
H         2.22641867      -7.60231000      -0.42443457
H         1.53461047      -7.91316946      -2.01858598
H         1.20455044      -9.01202085      -0.68386466
H        -4.04656019      -0.57139345       3.97323097
H        -4.42793215      -2.27750739       4.13761099
H        -5.53544325      -0.56943335       1.87961605
H        -6.33696922      -0.82245489       3.42951105
H        -5.70227328      -2.95013466       1.34296126
H        -7.25974568      -2.24260948       1.71660757
H        -7.11627646      -3.16936312       4.04219770
H        -5.63521705      -4.01378330       3.58884768
H        -6.83309582      -5.23851523       1.82189384
H        -8.29626633      -4.32531371       2.15345613
H        -8.53335024      -6.48164922       3.17340831
H        -8.40172396      -5.26212216       4.43750800
H        -7.12353669      -7.17036923       5.10715443
H        -5.97814832      -5.89155867       4.73170010
H        -6.72002912      -8.23325505       2.91127448
H        -5.22181651      -8.06743856       3.82380420
H        -5.56645928      -6.97429218       2.48645055
