85
strain_lig_112 ligand at complex geometry  charge=0 uhf=0  from=66|CCCCCCN(CCCCCC)C(=O)CC(=O)N(CCCCCC)CCCCCC|nitrate
C         4.54531084      -2.43055551      -3.87796004
C         3.99381396      -3.85066205      -3.81499336
C         2.52033972      -3.82905469      -4.19797515
C         1.81255611      -5.17417557      -4.08628686
C         0.41069942      -5.16091039      -4.70214709
C        -0.68946500      -4.54159724      -3.83455213
N        -0.52047592      -3.13617730      -3.49953191
C        -0.80663676      -2.17166054      -4.56321106
C         0.37613550      -1.77084804      -5.44101289
C        -0.05495885      -0.78559474      -6.53161900
C        -0.75684734      -1.41542062      -7.73901954
C         0.19299191      -1.89243309      -8.83858241
C         0.97405997      -3.15314314      -8.48811805
C        -0.22600594      -2.65647537      -2.29082172
O        -0.06660418      -1.43437338      -2.10448771
C        -0.07687131      -3.58650050      -1.08580857
C        -1.10677880      -3.20155874      -0.01693616
O        -1.33701741      -1.99682405       0.21468692
N        -1.73502653      -4.15615616       0.66683759
C        -1.35051691      -5.56137486       0.75975043
C        -2.42681452      -6.51621913       0.24009555
C        -2.62976937      -6.40156534      -1.26746701
C        -3.86557460      -7.17377065      -1.72617562
C        -4.20537736      -6.93286509      -3.19683122
C        -3.16057990      -7.50505656      -4.14704350
C        -2.73114908      -3.73134895       1.64875279
C        -3.98678718      -3.05798554       1.08845414
C        -4.80246838      -3.87837906       0.09212600
C        -6.13041784      -3.17463169      -0.19371392
C        -6.86381607      -3.71458035      -1.41944134
C        -7.54541095      -5.04877249      -1.15889148
H         5.61237752      -2.40521001      -3.68278655
H         4.04537738      -1.80878667      -3.13770544
H         4.37271806      -2.00088283      -4.86222899
H         4.11611504      -4.25560341      -2.80811239
H         4.54482015      -4.48954430      -4.50568618
H         2.47027859      -3.50554417      -5.23695959
H         2.00910130      -3.08915567      -3.57824752
H         1.76311066      -5.49708804      -3.04322660
H         2.40276647      -5.91653499      -4.62361524
H         0.09626127      -6.19100356      -4.87918229
H         0.44155449      -4.66842406      -5.67231242
H        -0.76968235      -5.12347029      -2.92188805
H        -1.64253303      -4.64582966      -4.36214691
H        -1.19429780      -1.26746043      -4.08175922
H        -1.58219003      -2.60944279      -5.19189008
H         0.80455332      -2.64499447      -5.91873625
H         1.13577949      -1.30309829      -4.80974048
H         0.83601467      -0.26454103      -6.88799510
H        -0.71847514      -0.04104980      -6.08702889
H        -1.41312382      -0.65718543      -8.17056798
H        -1.39208722      -2.24401950      -7.42183467
H         0.88594464      -1.08529910      -9.08034154
H        -0.40145797      -2.08461728      -9.73211746
H         1.76149410      -2.94679438      -7.76557752
H         1.44286457      -3.55724576      -9.38060293
H         0.30352297      -3.91324022      -8.08925351
H         0.89496255      -3.33222907      -0.65214212
H        -0.09191480      -4.64307968      -1.32959933
H        -1.15912850      -5.78016814       1.81698008
H        -0.41366123      -5.73464911       0.23161864
H        -3.36974471      -6.32992134       0.75565038
H        -2.12350366      -7.53305959       0.48839737
H        -1.74416149      -6.79166845      -1.77489145
H        -2.75300733      -5.34893779      -1.53791477
H        -4.71719995      -6.86602454      -1.11384739
H        -3.70820238      -8.24138083      -1.56399725
H        -4.32325281      -5.85961768      -3.37227404
H        -5.16650516      -7.40258260      -3.40669877
H        -2.20083289      -7.00765732      -4.02642131
H        -3.47797538      -7.38918324      -5.18026482
H        -3.02225746      -8.56533234      -3.95341349
H        -2.24696293      -3.02469969       2.33146075
H        -3.02553347      -4.61193868       2.21300574
H        -3.70923834      -2.11008584       0.62345423
H        -4.61739593      -2.83764089       1.95429426
H        -4.99488932      -4.87086193       0.49839597
H        -4.24128686      -3.98685922      -0.83872478
H        -5.92255864      -2.11284091      -0.33757244
H        -6.78511917      -3.27408449       0.67408945
H        -6.15896173      -3.82578999      -2.24441819
H        -7.61439322      -2.98385959      -1.72501844
H        -6.81475252      -5.81619948      -0.91913182
H        -8.09709558      -5.37231313      -2.03720691
H        -8.24212502      -4.96517640      -0.32848933
