36
strain_lig_160 ligand at complex geometry  charge=0 uhf=0  from=63|Cc1cc(C)n(-c2cncc(-n3nc(C)cc3C)n2)n1|nitrate
C        -2.13400649       0.66325295      -2.96737161
C        -1.40129130       1.86634254      -2.51233459
C        -1.33801707       3.15283850      -3.11592062
C        -0.56804367       3.91221605      -2.25381330
C        -0.18478101       5.33757537      -2.24422209
N        -0.12774199       3.00733800      -1.33671816
C         0.23230509       2.99239254      -0.03715125
C        -1.02430041       2.95547183       0.66742129
N        -1.41298426       1.72931284       1.13621770
C        -0.44495867       1.20312208       1.80225385
C         0.79882302       1.59919829       1.39843513
N         1.78081155       1.09510675       2.13735645
N         2.01473586       0.07562534       1.42993369
C         2.73164319      -0.73064999       2.22644470
C         3.28264140      -2.00746468       1.71709743
C         2.80562692      -0.19717881       3.53711081
C         2.08092056       0.97655156       3.46397091
C         1.70637872       1.98077852       4.48164415
N         1.07084931       1.91865890       0.10271289
N        -0.72528495       1.84766557      -1.35158095
H        -2.70991839       0.87250619      -3.87439120
H        -2.83085180       0.32053348      -2.19569930
H        -1.43470269      -0.14919880      -3.18889094
H        -1.82804062       3.48192537      -4.02161023
H        -0.60680411       5.86141064      -3.10786917
H         0.90368084       5.44740859      -2.28196734
H        -0.55189862       5.83149541      -1.33893516
H        -1.84204518       3.62690886       0.41412524
H        -0.66478712       0.49833751       2.58858246
H         2.73258124      -2.35690284       0.83721535
H         3.22059965      -2.78756793       2.48265358
H         4.33340715      -1.88171238       1.43822328
H         3.27427787      -0.63175012       4.40903092
H         2.19521781       1.76739325       5.43771277
H         0.62498381       1.98062849       4.64927196
H         2.00878776       2.98483251       4.16696765
