38
strain_lig_150 ligand at complex geometry  charge=0 uhf=0  from=63|CCN(CC)C(=O)c1ccc2ccc3cccnc3c2n1|water
C        -4.46199369      -3.00551907       3.84840929
C        -3.77164989      -3.37054886       2.53380296
N        -2.48102006      -2.71483657       2.42266616
C        -1.39849763      -3.31117018       3.22490698
C        -0.84680927      -2.37547091       4.30339725
C        -2.14542277      -1.67226274       1.66729467
O        -0.94123754      -1.33249464       1.62173786
C        -3.09709669      -0.80899345       0.86504940
C        -4.46636638      -0.60818145       1.08771643
C        -5.13003367       0.32241105       0.32001046
C        -4.45220859       1.07326328      -0.65187831
C        -5.10195089       2.04996155      -1.46203663
C        -4.40048104       2.71427633      -2.41321135
C        -3.00954613       2.45672067      -2.61491466
C        -2.29654251       3.07108510      -3.66000305
C        -0.97599529       2.74924926      -3.86025532
C        -0.37523209       1.85669993      -2.97156731
N        -0.99354016       1.29771737      -1.94416085
C        -2.31147927       1.54723147      -1.78675628
C        -3.06443534       0.82321783      -0.78712325
N        -2.43305442      -0.08757347      -0.03535929
H        -5.44223410      -3.46963304       3.88700072
H        -4.57518091      -1.92799424       3.95921895
H        -3.89450844      -3.37353901       4.69882356
H        -4.39201409      -3.12948213       1.66939355
H        -3.58423996      -4.44957014       2.51079514
H        -0.58206978      -3.58022110       2.54433616
H        -1.78194555      -4.22021713       3.69412990
H        -0.35720289      -1.51324347       3.85179041
H        -0.11285589      -2.92135958       4.89388097
H        -1.63556733      -2.03249725       4.96963667
H        -4.99776978      -1.14376451       1.85596780
H        -6.18023405       0.49347869       0.48032838
H        -6.15749540       2.22637368      -1.31411709
H        -4.88571293       3.43103377      -3.05941845
H        -2.79748976       3.77409468      -4.30634083
H        -0.40166761       3.16926522      -4.67538064
H         0.66045810       1.58288539      -3.12882439
