95
strain_lig_030 ligand at complex geometry  charge=0 uhf=0  from=59|CCCCCCCCCCCCN(C)C(=O)COCC(=O)N(C)CCCCCCCCCCCC|water
C         0.74164083       2.52551418      -5.06852476
C        -0.08979490       1.83915372      -6.14728096
C        -0.03325401       0.31814415      -6.02588584
C        -0.93504248      -0.36748826      -7.05194605
C        -0.79379176      -1.88956029      -7.09254129
C        -0.89272716      -2.60211075      -5.74604572
C        -2.29561784      -2.84976230      -5.19202748
C        -3.16469323      -1.62079113      -4.95080631
C        -4.40380492      -1.99682077      -4.13527717
C        -5.54314891      -0.98598218      -4.25253300
C        -5.23636856       0.40497784      -3.69299895
C        -5.48370147       0.57717042      -2.18744869
N        -4.56850543      -0.09448288      -1.26860317
C        -5.13863677      -1.09913434      -0.38304305
C        -3.29491226       0.21983534      -1.09602370
O        -2.60759220      -0.22724953      -0.16139651
C        -2.55015097       1.11188348      -2.08720559
O        -1.38665009       1.64036173      -1.46067724
C        -1.64257988       2.86207789      -0.77225861
C        -1.59002721       2.72352479       0.75246845
O        -1.19390315       1.66144081       1.26771826
N        -1.86847944       3.80564638       1.46733787
C        -2.40337449       5.05562549       0.97243180
C        -1.69139320       3.76409800       2.91061005
C        -3.00322401       3.58283927       3.67329476
C        -2.71630396       3.21316657       5.12642725
C        -2.26876366       1.76615145       5.31510253
C        -2.06357798       1.43119467       6.79370454
C        -0.77063487       2.01643995       7.38765912
C        -1.00242947       2.97231876       8.56064565
C        -1.58627011       4.31791862       8.14087310
C        -1.64267779       5.31716413       9.29202222
C        -2.51956375       6.53958246       9.00878529
C        -1.94599980       7.54000066       7.99929921
C        -2.23917673       7.20508377       6.53926016
H         0.67666630       3.60561447      -5.17149121
H         1.78712659       2.23870088      -5.15801599
H         0.39274518       2.24479728      -4.07114290
H         0.27600498       2.13455016      -7.13073408
H        -1.13086980       2.16380214      -6.07182248
H        -0.34413882       0.05243748      -5.00743146
H         0.99765869      -0.02111063      -6.15736693
H        -0.67719625       0.01244297      -8.04164421
H        -1.96845311      -0.08078137      -6.85977906
H         0.18533872      -2.12574925      -7.51140536
H        -1.54182825      -2.29096332      -7.77178552
H        -0.29661074      -2.03870513      -5.03046863
H        -0.42614211      -3.58188003      -5.86458136
H        -2.20916769      -3.39829399      -4.24693878
H        -2.82427774      -3.50291938      -5.87836889
H        -3.48289560      -1.21518347      -5.90906883
H        -2.58467074      -0.85159407      -4.43479667
H        -4.12186037      -2.14411311      -3.08845146
H        -4.77602743      -2.94924156      -4.51641061
H        -6.43347113      -1.38442529      -3.76388297
H        -5.78453973      -0.87405887      -5.31056855
H        -5.91553386       1.11446587      -4.16842526
H        -4.22517349       0.69535531      -3.97297246
H        -6.48078859       0.19198362      -1.96608871
H        -5.48647957       1.64997331      -1.95720226
H        -5.59278422      -1.89075796      -0.97924156
H        -5.90630318      -0.67787382       0.26790709
H        -4.33132421      -1.49941586       0.23003894
H        -3.15666838       1.92104433      -2.50364884
H        -2.17552575       0.48380064      -2.90572534
H        -2.60137816       3.28165303      -1.09314743
H        -0.82472654       3.52728939      -1.07416918
H        -2.45023528       5.09016801      -0.10971725
H        -1.76787143       5.87145753       1.31990632
H        -3.40444814       5.20536399       1.37902407
H        -1.22012302       4.70178689       3.21261569
H        -1.02691762       2.92543361       3.12405179
H        -3.59536677       2.79523629       3.20239857
H        -3.58023434       4.50928258       3.64877336
H        -3.62722400       3.36786813       5.70359422
H        -1.95897991       3.89176196       5.51554287
H        -1.34130160       1.57060746       4.76782373
H        -3.03654273       1.10833862       4.90025808
H        -2.05678011       0.34641813       6.90418042
H        -2.92447197       1.79790241       7.35261265
H        -0.20624397       2.54098470       6.61132596
H        -0.13611877       1.19950773       7.73467633
H        -0.04745490       3.14589921       9.05955914
H        -1.66723830       2.49968892       9.28419771
H        -2.59665327       4.17809424       7.75828199
H        -0.96701319       4.72955970       7.34316326
H        -0.63269720       5.64975836       9.53674092
H        -2.04204094       4.80949586      10.17163082
H        -2.66041210       7.06702077       9.95381227
H        -3.50524334       6.20995470       8.67005131
H        -0.86824378       7.62975028       8.14702819
H        -2.38395753       8.51795559       8.20498034
H        -1.67183269       6.34251680       6.19692382
H        -1.98489592       8.05188462       5.90396776
H        -3.29798547       6.98940446       6.41194247
