68
strain_lig_141 ligand at complex geometry  charge=0 uhf=0  from=70|CCN(C(=O)c1ccc2ccc3ccc(C(=O)N(CC)c4ccc(C)cc4)nc3c2n1)c1ccc(C)cc1|nitrate
C        -4.36201655      -3.78250643      -1.70012614
C        -3.49700459      -4.34708310      -0.57744132
N        -2.15741830      -3.76825782      -0.57328470
C        -1.90042033      -2.51059082      -0.19862068
O        -0.73084682      -2.06250053      -0.29828716
C        -2.90309479      -1.49618708       0.35391960
C        -4.27562557      -1.60667594       0.64476124
C        -4.97350410      -0.51585412       1.12705296
C        -4.32688172       0.71274037       1.33497488
C        -4.94926593       1.89475766       1.83494932
C        -4.24810457       3.03829103       2.03799194
C        -2.85315286       3.11120340       1.76442611
C        -2.06072245       4.26229365       1.94171297
C        -0.71116899       4.23011390       1.66846486
C        -0.13370293       3.01757216       1.25501705
C         1.27718137       2.77232661       0.81432927
O         1.46606055       1.73778828       0.11432288
N         2.25432821       3.64535427       1.04293075
C         3.46648551       3.49689588       0.24106787
C         4.66363865       3.04450190       1.05807418
C         2.26321704       4.57090690       2.11835686
C         1.73370326       4.19199716       3.35401736
C         1.78304232       5.06064616       4.42645041
C         2.37827770       6.31820132       4.30110216
C         2.48781337       7.23954908       5.46599987
C         2.89096156       6.68829934       3.05747943
C         2.84198251       5.83025183       1.97602714
N        -0.87705880       1.92869430       1.07797448
C        -2.19593553       1.95080481       1.29450028
C        -2.94126098       0.73524423       1.05369161
N        -2.28294285      -0.33392413       0.58724209
C        -1.10092928      -4.64546941      -1.01871819
C        -1.33814258      -5.55388219      -2.05638385
C        -0.37014523      -6.46109942      -2.44598632
C         0.87749382      -6.50712943      -1.82323310
C         1.91189862      -7.49797451      -2.25192955
C         1.10303507      -5.60724211      -0.78825480
C         0.13975002      -4.69243053      -0.38621859
H        -5.36320553      -4.19968595      -1.63465463
H        -3.94313793      -4.03439878      -2.67061485
H        -4.43161180      -2.69966029      -1.63940253
H        -3.38716511      -5.42397882      -0.69553628
H        -3.94360815      -4.18193804       0.40313726
H        -4.81406202      -2.52504293       0.51568617
H        -6.02592825      -0.60491122       1.36355564
H        -6.00413753       1.85329001       2.06343580
H        -4.72984450       3.92117424       2.43506651
H        -2.51837067       5.17221573       2.30809596
H        -0.10132193       5.11074032       1.78123055
H         3.67573601       4.45157527      -0.24164436
H         3.21972747       2.75778045      -0.52071533
H         4.89364042       3.76312156       1.83898138
H         5.53117546       2.95146305       0.41166219
H         4.47194741       2.07769876       1.51620363
H         1.28099492       3.21137870       3.44684301
H         1.36866761       4.75396444       5.37605031
H         2.06157534       6.80811380       6.36756628
H         1.98498326       8.18319911       5.25926152
H         3.53557643       7.47052707       5.65419159
H         3.33875401       7.66116849       2.91816989
H         3.23167546       6.15607648       1.02370082
H        -2.28535651      -5.57236216      -2.57267092
H        -0.58445644      -7.16813019      -3.23313935
H         1.54394016      -8.51869362      -2.14451561
H         2.81855150      -7.39942247      -1.66048341
H         2.16403690      -7.37247053      -3.30527797
H         2.04101551      -5.63225712      -0.25077941
H         0.35693122      -4.03791414       0.44471791
