64
strain_lig_116 ligand at complex geometry  charge=0 uhf=0  from=63|CCCCCCN(CCCCCC)C(=O)COCC(=O)N1CCOCC1|nitrate
C        -4.24615374       7.19697532       2.32690977
C        -2.99807908       7.44087987       1.48501489
C        -2.71198453       6.23824165       0.58835894
C        -1.62741889       6.45953566      -0.46807728
C        -0.24893856       6.87957311       0.04636290
C         0.48893641       5.81722898       0.86674654
N         0.84260452       4.60871816       0.12706372
C         1.94319386       4.74717638      -0.83379619
C         1.66748525       4.25209666      -2.25918414
C         0.60489251       5.04931766      -3.03811563
C        -0.72558821       4.30706333      -3.23554011
C        -0.84443152       3.62660225      -4.60134495
C         0.32953357       2.71105379      -4.92023155
C         0.40430920       3.40728494       0.44151021
O         0.81990501       2.33892028      -0.07705239
C        -0.63318626       3.25777821       1.57123415
O        -0.80161310       1.85349380       1.69169241
C        -1.26453536       1.34833866       2.94486922
C        -0.53110801       0.01094178       2.96296038
O        -0.85465933      -0.81946630       2.09238623
N         0.49245115      -0.16501712       3.80389386
C         1.24255261      -1.39370964       3.61565535
C         2.19135154      -1.15357600       2.41134540
O         1.96012065       0.14903969       1.85663162
C         2.28648549       1.13355082       2.84199371
C         1.40050639       0.92698186       4.11455106
H        -4.43519038       8.04445570       2.97806304
H        -4.13028739       6.30744814       2.94570576
H        -5.11460803       7.05932699       1.68723587
H        -2.14930895       7.62669720       2.14700538
H        -3.14496166       8.32719979       0.86687704
H        -3.63482718       5.97770273       0.06319828
H        -2.45948268       5.38608616       1.22864280
H        -1.97729884       7.24408007      -1.14116176
H        -1.52890442       5.54377155      -1.05212010
H        -0.35441231       7.76068674       0.68002764
H         0.36771035       7.17107735      -0.80395381
H        -0.12197146       5.57489562       1.73049536
H         1.42539426       6.25279847       1.22775057
H         2.79137139       4.17951603      -0.43456280
H         2.22002807       5.80163036      -0.86094422
H         1.40501110       3.19273230      -2.22082801
H         2.62531771       4.33336936      -2.77571278
H         0.99768299       5.30160971      -4.02215716
H         0.42500510       5.99711203      -2.53305087
H        -1.55100968       5.01679343      -3.16581914
H        -0.85188583       3.55878564      -2.44196810
H        -0.92558869       4.38807410      -5.37654683
H        -1.77101262       3.04970586      -4.61549643
H         1.20473880       3.28421271      -5.20779258
H         0.07877661       2.04329621      -5.73993071
H         0.58361818       2.12781328      -4.03939702
H        -1.58661979       3.74779483       1.31918222
H        -0.24483225       3.67999175       2.50829101
H        -2.35208959       1.18552039       2.91438847
H        -1.01551153       2.00953578       3.77664937
H         0.53283300      -2.20157327       3.42146383
H         1.79007915      -1.61757989       4.52882874
H         1.95771887      -1.86052200       1.61667161
H         3.24399973      -1.24443482       2.70672663
H         2.11314456       2.10644926       2.37886951
H         3.34872692       1.05313715       3.10319309
H         0.87843072       1.84194853       4.37933777
H         1.99912436       0.63661827       4.97679159
