114
strain_lig_035 ligand at complex geometry  charge=0 uhf=0  from=66|CCCCCCCCCCCCN(CCCCCCCCCCCC)C(=O)COC1CCCN(CCCCCC)C1=O|nitrate
C         3.99389719       6.78030636       7.58768825
C         2.47821525       6.59070269       7.59821641
C         1.89676764       6.60999396       6.18183554
C         1.93066799       7.98994839       5.52285119
C         1.05236832       8.08774462       4.26851671
C         1.71826755       7.67808499       2.94875961
C         0.69915392       7.72466153       1.80027664
C         1.22687941       7.40751483       0.38962504
C         1.25597497       5.90897754       0.05771123
C         1.80182847       5.59218439      -1.35310358
C         1.47140934       4.16370891      -1.85112148
C         2.62928236       3.38467727      -2.51719239
N         2.13416244       2.06704385      -2.91397197
C         1.42671076       2.07038938      -4.19867748
C         2.39712096       1.86681025      -5.36742209
C         3.01384986       0.46009854      -5.39611848
C         2.44695311      -0.49642564      -6.45162667
C         0.98158407      -0.92206782      -6.32801267
C        -0.04237312       0.06785106      -6.88597228
C        -1.39614854      -0.59712597      -7.13985843
C        -2.41451215       0.36240315      -7.75915827
C        -3.73013475      -0.33768756      -8.11691026
C        -4.64031398      -0.68660154      -6.93795050
C        -5.30952039       0.52516351      -6.29103735
C        -6.25279722       0.10335082      -5.16927888
C         2.02750458       0.98600859      -2.13664635
O         1.04383043       0.21607467      -2.19351169
C         3.16336485       0.48840556      -1.21573966
O         2.60397107       0.21454955       0.06857656
C         3.25983437      -0.77653851       0.86741074
C         3.46556845      -0.28696622       2.29600031
C         4.12803455      -1.43687598       3.03602126
C         3.12326349      -2.56977800       3.15400378
N         2.38078632      -2.82700630       1.92764375
C         1.51942844      -4.00719455       1.96628749
C         0.56234803      -4.01469682       3.16374155
C        -0.31829711      -5.26446799       3.18590922
C        -1.38704732      -5.28652360       2.09733540
C        -2.23845203      -6.55442675       2.16906746
C        -1.43336698      -7.81479508       1.87878241
C         2.32126253      -1.99715203       0.89957869
O         1.52937196      -2.11697807      -0.05674952
H         4.43029213       6.52688712       8.55148884
H         4.26092225       7.80813954       7.35195701
H         4.44324038       6.13616757       6.83290718
H         2.00454124       7.37421868       8.19392924
H         2.23012777       5.62864299       8.06598242
H         0.85883875       6.26528342       6.21774083
H         2.47393787       5.90479774       5.57685670
H         2.96031063       8.24961853       5.28322046
H         1.57033278       8.71725409       6.25323530
H         0.73207737       9.12475234       4.15833589
H         0.15742128       7.48325360       4.43389083
H         2.16173099       6.68483448       3.04100935
H         2.53039499       8.37585568       2.73928409
H         0.28853667       8.73517622       1.77573062
H        -0.13393299       7.05236569       2.02771796
H         2.22865728       7.82171531       0.27157505
H         0.58211705       7.91626461      -0.32802187
H         0.24526502       5.50312135       0.14613056
H         1.86238809       5.43381600       0.82962896
H         2.87810470       5.76472931      -1.37153638
H         1.34731603       6.30738853      -2.03699217
H         0.65549721       4.22013000      -2.57042031
H         1.09072047       3.57130748      -1.01840885
H         3.48543732       3.30300927      -1.85709043
H         2.96435970       3.89085311      -3.42463856
H         0.91727350       3.02821693      -4.30975530
H         0.70674632       1.25678024      -4.20806433
H         3.18691377       2.62015840      -5.34618092
H         1.83969817       2.03346886      -6.29028691
H         2.93791379      -0.00167568      -4.40698314
H         4.07617066       0.56045033      -5.62185296
H         3.05039559      -1.40388526      -6.39375120
H         2.60753674      -0.07185654      -7.44405956
H         0.75355412      -1.16936851      -5.28863263
H         0.87434470      -1.84407576      -6.90193269
H         0.33244124       0.46227796      -7.83191121
H        -0.18459807       0.91424813      -6.21328391
H        -1.78866493      -0.99956739      -6.20426656
H        -1.25404058      -1.43486954      -7.82469723
H        -1.99550098       0.77171514      -8.68297509
H        -2.59286887       1.20391717      -7.08393103
H        -3.47813007      -1.26189987      -8.64141462
H        -4.29367755       0.29318746      -8.80816692
H        -4.08298404      -1.24819944      -6.18366958
H        -5.42725955      -1.34689905      -7.30807787
H        -5.87527445       1.06866078      -7.04973082
H        -4.55469127       1.21261442      -5.90040001
H        -7.01922661      -0.56325309      -5.55694274
H        -6.74999284       0.96552350      -4.72954166
H        -5.70896250      -0.42633837      -4.38749701
H         4.03500844       1.14962225      -1.13518830
H         3.48497672      -0.45497775      -1.68575631
H         4.21661032      -1.05743179       0.40881101
H         2.48078289      -0.07086855       2.72185984
H         4.07671495       0.61057174       2.33948150
H         4.43619990      -1.13310402       4.03406827
H         5.02629710      -1.75943380       2.50928004
H         2.39111092      -2.29133644       3.92009474
H         3.61473943      -3.49563277       3.46691666
H         2.15564309      -4.89980439       2.00227329
H         0.95811551      -4.02294275       1.02823184
H        -0.06204330      -3.12173872       3.13316006
H         1.13410771      -3.99614320       4.09344394
H        -0.81394633      -5.31797838       4.15824397
H         0.31840586      -6.14316500       3.08592622
H        -0.92196566      -5.23073095       1.11205797
H        -2.03310295      -4.41338768       2.21124739
H        -3.05048825      -6.47529742       1.44461888
H        -2.69245245      -6.63172808       3.15786970
H        -0.92301100      -7.73342902       0.92231799
H        -2.08276477      -8.68357735       1.84193708
H        -0.69088504      -7.99172449       2.65169143
