89
strain_lig_072 ligand at complex geometry  charge=0 uhf=0  from=63|CCCCCCCCN(CCCCCCCC)C(=O)CNCP(=O)(CCCC)CCCC|nitrate
C        -5.98569465       1.02629281      -7.58256996
C        -6.86219081       1.55731857      -6.45502021
C        -6.21149758       1.50822622      -5.07134751
C        -5.07266367       2.51360093      -4.88655893
C        -3.68231406       1.98609973      -5.23349026
C        -3.15305304       0.91269586      -4.26588035
C        -3.06161802      -0.45728708      -4.93730320
C        -2.22937424      -1.48502402      -4.16250787
N        -2.90011132      -1.92116094      -2.94204501
C        -4.06194717      -2.78704300      -3.11003848
C        -3.75602378      -4.07011464      -3.90912383
C        -3.17861086      -5.23061769      -3.08226621
C        -1.76208086      -5.70499248      -3.43041085
C        -0.61039525      -4.84735237      -2.90047926
C         0.66211906      -5.66494008      -2.62477850
C         1.15684624      -6.55691900      -3.76517282
C         1.64172880      -5.78110327      -4.98012654
C        -2.38223936      -1.55411027      -1.77247458
O        -1.17133111      -1.29281633      -1.63985232
C        -3.30106547      -1.38707648      -0.53987194
N        -2.73449887      -0.37412679       0.37274563
C        -3.36995698       0.93509061       0.45339550
P        -2.44262147       1.77907915       1.88346997
O        -1.04965450       1.23403634       1.76911706
C        -3.45155532       1.27575126       3.34447624
C        -3.65293539      -0.20460889       3.66795120
C        -2.37198171      -0.86003359       4.18703745
C        -2.65583540      -2.20930872       4.83801000
C        -2.32342292       3.59358416       2.37057095
C        -2.01967132       4.83734755       1.52693568
C        -1.14256016       5.82025378       2.31053052
C        -0.77149969       7.02996612       1.45550830
H        -6.56941298       0.94626440      -8.49475754
H        -5.60323948       0.03561501      -7.34212429
H        -5.15096728       1.69194904      -7.78399998
H        -7.78233978       0.97143718      -6.42748058
H        -7.15051552       2.58701273      -6.67350512
H        -5.84828334       0.49949795      -4.87067516
H        -6.99107095       1.72141677      -4.33731525
H        -5.05832476       2.85018390      -3.85071731
H        -5.28687862       3.39202764      -5.49486983
H        -3.00309933       2.83922169      -5.24604704
H        -3.68956609       1.57970565      -6.23995755
H        -3.79101330       0.85720196      -3.38134587
H        -2.15610481       1.19101215      -3.92264176
H        -2.58298008      -0.32809300      -5.90683682
H        -4.05742368      -0.85161898      -5.13112175
H        -1.28775873      -1.03084365      -3.85022474
H        -2.03410373      -2.35648099      -4.78866547
H        -4.86305096      -2.23919471      -3.61179408
H        -4.42159005      -3.09279490      -2.12854457
H        -3.09323220      -3.86154315      -4.74158068
H        -4.69358335      -4.39116771      -4.36053656
H        -3.83103074      -6.09140998      -3.22367635
H        -3.21752171      -4.97200890      -2.02539194
H        -1.67535650      -5.80916127      -4.51015966
H        -1.64813566      -6.70479866      -3.01049839
H        -0.91339131      -4.37674108      -1.95960014
H        -0.38761088      -4.03858372      -3.59600711
H         0.47801803      -6.31304530      -1.76487415
H         1.47441730      -4.98420075      -2.35007391
H         0.36979039      -7.24818872      -4.06047820
H         1.98484038      -7.15986469      -3.38581679
H         0.83770788      -5.20327946      -5.42584048
H         2.02475799      -6.46199100      -5.73345940
H         2.44891077      -5.10718341      -4.70128052
H        -3.32878028      -2.33904798       0.00096417
H        -4.31783817      -1.14824548      -0.87254009
H        -2.73049568      -0.76175817       1.31433274
H        -4.43836203       0.87050315       0.69254088
H        -3.21928296       1.46678465      -0.48414454
H        -4.42747613       1.73990245       3.17615645
H        -3.02465232       1.76557840       4.22298505
H        -4.06238687      -0.74886287       2.81017290
H        -4.41101168      -0.26593894       4.45552051
H        -1.93791282      -0.19308198       4.93552865
H        -1.64867892      -0.95793134       3.36942668
H        -3.37180346      -2.08232622       5.64571287
H        -1.74522752      -2.62325507       5.25795720
H        -3.06179052      -2.92341176       4.12542246
H        -1.50947754       3.47954897       3.10163890
H        -3.24045308       3.78876007       2.92572147
H        -2.94653808       5.35340573       1.28233631
H        -1.51758041       4.60767122       0.58954883
H        -0.23052267       5.31530973       2.64949147
H        -1.69253440       6.15905696       3.19130748
H        -0.17132773       6.72495245       0.59744961
H        -0.20065859       7.73799878       2.05069183
H        -1.66167544       7.54078204       1.09237870
