141
strain_lig_086 ligand at complex geometry  charge=0 uhf=0  from=63|CCCCCCCCN(CCCCCCCC)C(=O)COCC(=O)NCCOCCNC(=O)COCC(=O)N(CCCCCCCC)CCCCCCCC|nitrate
C        -0.63416068      -6.07131501       2.72278745
C        -1.68916073      -5.54396743       3.68981003
C        -3.09568803      -5.54146877       3.09151811
C        -3.26536367      -4.52195348       1.96758600
C        -4.70890935      -4.46561709       1.47216482
C        -4.88988269      -3.52611763       0.28149905
C        -4.74832040      -2.05722572       0.67841821
C        -4.64849580      -1.13034632      -0.53057139
N        -3.59901282      -1.49625773      -1.49411869
C        -3.91991704      -1.25766497      -2.90328625
C        -3.87745196      -2.47601553      -3.83927087
C        -3.39554484      -2.02365828      -5.22148554
C        -3.09881325      -3.16464788      -6.19198491
C        -2.47664658      -2.65584145      -7.49580796
C        -1.15924107      -1.88473186      -7.37272553
C         0.02825116      -2.71236925      -6.87049561
C         0.17601910      -2.72596272      -5.35109147
C        -2.37131367      -1.79184142      -1.09414822
O        -1.93960496      -1.65743211       0.07739536
C        -1.32104678      -2.33688698      -2.09594669
O        -0.09501223      -1.91869776      -1.51149742
C         1.10626658      -2.64734135      -1.73793089
C         1.74394345      -2.36887298      -0.38256922
O         1.82640706      -1.18726513      -0.02409073
N         2.00611205      -3.38034220       0.43212212
C         2.22025876      -3.12148134       1.84562580
C         0.91360313      -2.65728935       2.52814538
O         0.69151255      -1.24902058       2.46027731
C         1.14627053      -0.50180118       3.59107465
C         2.60982772      -0.01301666       3.53724955
N         3.04411489       0.48824395       2.23727934
C         2.25095360       1.08162351       1.34904152
O         1.04357502       1.25121601       1.54273594
C         2.88294489       1.51867298       0.01343131
O         1.92886045       1.35209105      -1.03125598
C         1.58740456       2.51946802      -1.78445225
C         0.28629546       3.10177887      -1.20323600
O        -0.29924245       2.36737320      -0.37939263
N        -0.18634723       4.29260270      -1.51616454
C        -1.41192254       4.70990973      -0.82489805
C        -1.22673316       4.82258106       0.69131955
C        -0.25238900       5.92385350       1.11213563
C        -0.73318616       7.33237454       0.76108520
C        -2.02110713       7.72413357       1.48400460
C        -2.44059468       9.15920291       1.17223062
C        -2.91715575       9.33719690      -0.26825313
C        -3.41322401      10.75509054      -0.51577756
C         0.25542648       5.10535951      -2.63277026
C        -0.67693473       4.94275370      -3.84258104
C        -0.62510111       3.56141684      -4.49653878
C         0.66008060       3.31178257      -5.28511347
C         0.65180374       1.94682149      -5.97120699
C         1.93554219       1.67361744      -6.75269977
C         3.15965923       1.47066108      -5.86163789
C         4.40222640       1.16214168      -6.68778227
H         0.33191556      -6.15340968       3.21622326
H        -0.52990878      -5.41807272       1.85761202
H        -0.91874155      -7.05835017       2.36927343
H        -1.42969805      -4.52937108       4.00471675
H        -1.68947971      -6.17325419       4.58041091
H        -3.81095885      -5.31167352       3.88212448
H        -3.32794995      -6.53951231       2.71703171
H        -2.61681955      -4.78329872       1.12766642
H        -2.95550984      -3.53947240       2.33152441
H        -5.36337001      -4.14322726       2.28290494
H        -5.01262144      -5.46953600       1.17382395
H        -5.87646923      -3.68484460      -0.15685528
H        -4.14927087      -3.77109296      -0.48395786
H        -3.87643555      -1.91318673       1.31447815
H        -5.62816763      -1.75156168       1.24680035
H        -4.46269476      -0.10514008      -0.19477281
H        -5.59481344      -1.15349425      -1.07360829
H        -3.22781216      -0.49487561      -3.27692315
H        -4.91341108      -0.81159909      -2.94525144
H        -4.86049760      -2.94140769      -3.91183223
H        -3.19847443      -3.23274442      -3.44864759
H        -2.48152703      -1.44197797      -5.08846778
H        -4.13619230      -1.35881117      -5.66747616
H        -4.02490781      -3.68622798      -6.43788017
H        -2.43530635      -3.89286007      -5.72282294
H        -3.19958001      -2.00443034      -7.98915376
H        -2.30729774      -3.51149180      -8.15076773
H        -1.28261801      -1.00402152      -6.73926373
H        -0.91831716      -1.51852010      -8.37197844
H         0.94474884      -2.29363229      -7.29090981
H        -0.06392605      -3.73520187      -7.23870706
H         0.19915796      -1.70409860      -4.97341668
H         1.10527232      -3.21848371      -5.07073783
H        -0.64440357      -3.25905517      -4.87928146
H        -1.39870913      -1.91203414      -3.09915413
H        -1.38127892      -3.43318302      -2.12071077
H         1.67501118      -2.19335158      -2.55864792
H         0.93449550      -3.70865617      -1.92505538
H         1.90130064      -4.33942207       0.12962332
H         2.97596669      -2.33738879       1.92541183
H         2.58573689      -4.03181853       2.31690550
H         0.92832132      -2.98580652       3.57157293
H         0.04867384      -3.11573766       2.03161800
H         1.05707398      -1.10037249       4.50577566
H         0.46962756       0.35496979       3.65629664
H         3.29517602      -0.82189652       3.80110331
H         2.69358565       0.77738680       4.29339072
H         4.03451610       0.41359264       2.05219708
H         3.74922067       0.89162245      -0.22949097
H         3.19989538       2.56279199       0.10027030
H         1.42211015       2.16686581      -2.80943200
H         2.41014360       3.23917705      -1.77011035
H        -2.19132729       3.97313448      -1.03640680
H        -1.71346501       5.66929409      -1.24242656
H        -0.88846488       3.86627166       1.09947571
H        -2.21076986       5.02100685       1.11428311
H         0.72741634       5.74971333       0.65364261
H        -0.12258545       5.86020154       2.19460638
H        -0.87783041       7.41960164      -0.31685169
H         0.04657867       8.04316606       1.04083860
H        -1.86716460       7.61954284       2.55974188
H        -2.83794196       7.05788804       1.20025601
H        -1.60477975       9.83428800       1.36503463
H        -3.25301391       9.44366605       1.84274495
H        -3.72422718       8.62690195      -0.46880622
H        -2.10020408       9.12244616      -0.96116818
H        -4.24469507      10.98539962       0.14461039
H        -3.74613924      10.87397497      -1.54323766
H        -2.61821282      11.47212928      -0.32812897
H         1.27625098       4.84380758      -2.90625787
H         0.24718601       6.15040509      -2.31581071
H        -0.40962733       5.70069669      -4.57955918
H        -1.70112977       5.14100233      -3.52462807
H        -1.46918924       3.48909661      -5.18385222
H        -0.77031892       2.78838231      -3.73575671
H         1.52724986       3.38447861      -4.62568877
H         0.76433835       4.08831992      -6.04521665
H        -0.19320078       1.91126371      -6.66034310
H         0.50262304       1.16037504      -5.22443618
H         2.12241144       2.50276415      -7.43605244
H         1.79592590       0.77769357      -7.35883205
H         2.96607171       0.64699240      -5.16623033
H         3.34682945       2.37209668      -5.27338505
H         4.25990162       0.25542260      -7.26949961
H         5.27123791       1.02912282      -6.04830006
H         4.60931960       1.97762114      -7.37508028
