109
strain_lig_067 ligand at complex geometry  charge=0 uhf=0  from=66|CCCCCCCCN(CCCCCCCC)C(=O)CC(=O)N(CCCCCCCC)CCCCCCCC|nitrate
C        -0.54647520      -3.35284599       9.30786833
C        -1.53693976      -3.79886721       8.24286137
C        -0.84776621      -4.58283479       7.12783075
C        -1.79658959      -4.96486932       5.98809005
C        -1.06436694      -5.05392259       4.64948412
C        -1.91733234      -5.65363150       3.53395179
C        -1.56127869      -5.15090049       2.13253533
C        -2.01081318      -3.70549316       1.85274942
N        -2.33742372      -3.53344086       0.44482383
C        -3.62189155      -4.04236045       0.00563833
C        -4.74050092      -3.01197127       0.21203649
C        -4.74678806      -1.70383285      -0.59686765
C        -3.83805794      -0.57873405      -0.07838071
C        -4.33689512       0.80696763      -0.50739599
C        -3.53324718       1.93228462       0.14991950
C        -3.84548930       3.33428236      -0.38576570
C        -3.76369052       4.40063488       0.70350324
C        -1.56681199      -2.73436268      -0.30051112
O        -0.78639478      -1.91776111       0.21440542
C        -1.66322472      -2.92200328      -1.80884698
C        -0.40586720      -2.40983493      -2.51467870
O         0.05936487      -1.31317759      -2.17907396
N         0.11765003      -3.15275274      -3.50487806
C        -0.39373085      -4.49209825      -3.82401022
C         0.50744530      -5.42208885      -4.64329471
C        -0.00236557      -6.86866281      -4.52589789
C         0.46047078      -7.52893035      -3.22762303
C        -0.03385315      -8.96357579      -3.05778318
C         0.42810090      -9.54702333      -1.72134012
C         0.11077575     -11.03348996      -1.53612755
C        -1.37839969     -11.30658662      -1.35976813
C         1.23006122      -2.62405127      -4.28989724
C         0.87074741      -2.24439187      -5.74148112
C         0.66063500      -0.73897003      -5.90241575
C         0.65283533      -0.23779972      -7.35243982
C        -0.65370788      -0.42316233      -8.13089805
C        -0.77716146       0.65077876      -9.21673313
C        -2.08350102       0.61093127     -10.00939783
C        -3.29150826       1.07019086      -9.20308541
H        -1.02963670      -2.71546615      10.04299139
H         0.27038480      -2.79469559       8.85623131
H        -0.12526777      -4.20659759       9.82762112
H        -2.02368218      -2.91855599       7.81195293
H        -2.31824564      -4.41000381       8.69849128
H        -0.39003170      -5.48134187       7.54578675
H        -0.03879805      -3.96491400       6.72449261
H        -2.59037837      -4.21910151       5.91259525
H        -2.26703294      -5.92125213       6.20878808
H        -0.17550084      -5.67044515       4.77803735
H        -0.73271709      -4.05164969       4.36911562
H        -2.96613185      -5.44468402       3.73076267
H        -1.80782248      -6.73339969       3.54606935
H        -2.05212562      -5.80393139       1.40713071
H        -0.48276012      -5.23426929       1.97281602
H        -1.21030290      -2.99215480       2.05680962
H        -2.88467652      -3.45256451       2.46255278
H        -3.86393870      -4.90951237       0.62347036
H        -3.58188542      -4.36858755      -1.03194303
H        -4.76506029      -2.75121705       1.27164913
H        -5.66611316      -3.54417555      -0.01716925
H        -5.77141783      -1.33313917      -0.52921878
H        -4.55889314      -1.89210089      -1.65490089
H        -2.80160470      -0.67579720      -0.43340968
H        -3.81124188      -0.62100534       1.01119843
H        -5.38227120       0.91615316      -0.21561335
H        -4.29666682       0.88282878      -1.59321352
H        -2.45315221       1.72327444       0.05413273
H        -3.77749703       1.93149929       1.20977662
H        -4.84500651       3.35291986      -0.82037605
H        -3.13594210       3.58226090      -1.17304347
H        -4.55286863       4.25341742       1.43965368
H        -3.88959430       5.39395872       0.27720655
H        -2.80040677       4.35995778       1.21024094
H        -2.49608075      -2.32549300      -2.19611456
H        -1.86623916      -3.96920737      -2.01680949
H        -1.35042202      -4.38763064      -4.35116632
H        -0.56850602      -5.01202429      -2.87687312
H         1.53135937      -5.39603871      -4.26795417
H         0.51516795      -5.11476403      -5.68968645
H         0.38990779      -7.44474459      -5.36488457
H        -1.09197687      -6.88892850      -4.60246651
H         0.13018350      -6.94151143      -2.36485767
H         1.55145900      -7.53555087      -3.22066307
H         0.35323380      -9.57733379      -3.87027379
H        -1.12157918      -8.98349615      -3.11422043
H        -0.03664673      -8.98896113      -0.90421831
H         1.50929739      -9.41059723      -1.63324145
H         0.64054578     -11.38536231      -0.64673763
H         0.49089419     -11.59708501      -2.39011452
H        -1.77254619     -10.73061818      -0.52496587
H        -1.54055144     -12.35929961      -1.14646681
H        -1.92866634     -11.04613258      -2.25903488
H         2.03335759      -3.36350817      -4.29907825
H         1.59300931      -1.74312456      -3.75419886
H        -0.01985613      -2.78022650      -6.06653404
H         1.69010790      -2.56193197      -6.38849560
H         1.46991506      -0.23107876      -5.37342290
H        -0.26497555      -0.44933148      -5.40481921
H         1.46890147      -0.70850507      -7.90311078
H         0.86260653       0.83463957      -7.32488079
H        -1.49796446      -0.34753918      -7.44482885
H        -0.69116895      -1.41200222      -8.59003241
H         0.05994011       0.53628995      -9.90805082
H        -0.68398546       1.63966183      -8.75403622
H        -2.24972261      -0.39795297     -10.38995965
H        -1.97184760       1.27281481     -10.86923021
H        -3.46140914       0.43442457      -8.33697324
H        -4.18504617       1.04475910      -9.81854619
H        -3.15187973       2.09291594      -8.86011651
