88
strain_lig_105 ligand at complex geometry  charge=0 uhf=0  from=63|CCCCCCCCOc1cc(C(=O)Nc2ccc(C(C)(C)C)cc2)nc(C(=O)Nc2ccc(C(C)(C)C)cc2)c1|nitrate
C        -3.83087811      -8.73159608      -3.40182070
C        -2.43425654      -8.21719048      -3.08002677
C        -2.33473700      -6.69026525      -3.10821387
C        -2.57787693      -6.10335707      -4.50616960
C        -4.00407000      -5.59685896      -4.72360253
C        -4.29611468      -4.29595028      -3.98019271
C        -5.79631245      -4.00587646      -4.00422386
C        -6.17962316      -2.71343132      -3.28744645
O        -5.60846254      -2.73447102      -1.97892639
C        -4.43080913      -2.19674686      -1.71925900
C        -3.87537355      -1.07918066      -2.37863535
C        -2.65757613      -0.58515004      -1.94149305
C        -1.96530668       0.68545379      -2.38395709
O        -1.01723780       1.08415414      -1.68739159
N        -2.39600562       1.37283046      -3.44227216
C        -1.78696404       2.58048153      -3.89461368
C        -2.57471218       3.63958540      -4.32664442
C        -1.98731802       4.81610121      -4.74778240
C        -0.60182943       4.98477753      -4.78367254
C        -0.01045808       6.30721728      -5.24724512
C        -0.56593544       6.66175737      -6.63308929
C         1.51989274       6.29323745      -5.34148376
C        -0.42858745       7.39652728      -4.24828222
C         0.16894784       3.90229111      -4.36958642
C        -0.40728408       2.72431573      -3.92603705
N        -1.97546875      -1.17014258      -0.95134335
C        -2.49836399      -2.20653739      -0.28398409
C        -1.58353174      -2.60908746       0.85471892
O        -0.36615547      -2.42683172       0.68716975
N        -2.14951835      -3.05968135       1.97683303
C        -1.56039697      -3.30978984       3.24275727
C        -0.26926470      -2.93583158       3.60016181
C         0.17905977      -3.12871647       4.89693457
C        -0.62276976      -3.70022259       5.88748916
C        -0.10665876      -3.86564330       7.30849700
C         1.08981677      -4.82606045       7.31408782
C         0.35322250      -2.50622590       7.85174815
C        -1.15605754      -4.42173276       8.27567117
C        -1.89947161      -4.10377939       5.49943495
C        -2.35683391      -3.91776494       4.20808213
C        -3.72138002      -2.74859130      -0.62702395
H        -3.89238725      -9.79712202      -3.20546426
H        -4.07640087      -8.57380932      -4.44761144
H        -4.57217639      -8.22788487      -2.78601364
H        -1.72328463      -8.63502400      -3.79523943
H        -2.14693349      -8.56162913      -2.08503699
H        -1.33650353      -6.39658808      -2.76912781
H        -3.05279598      -6.27900442      -2.39216159
H        -2.37365212      -6.88381392      -5.24286498
H        -1.87732190      -5.28242191      -4.68783133
H        -4.70902640      -6.35478178      -4.38775850
H        -4.17220336      -5.44641244      -5.79070607
H        -3.73007036      -3.47602502      -4.43168135
H        -3.94857970      -4.40271771      -2.95000695
H        -6.31544678      -4.83587396      -3.52459422
H        -6.13475676      -3.93032710      -5.03726859
H        -7.26133825      -2.65868842      -3.15328004
H        -5.85208996      -1.84917229      -3.86444505
H        -4.42147364      -0.60742381      -3.18133810
H        -3.22979086       1.07535593      -3.92806347
H        -3.64932202       3.55097342      -4.32733755
H        -2.63219749       5.61763239      -5.06588825
H        -0.32092501       5.89047924      -7.35737176
H        -0.13585140       7.59794166      -6.97712710
H        -1.64329373       6.78163593      -6.61200578
H         1.87112737       5.53394771      -6.03678808
H         1.98863696       6.13263754      -4.37192959
H         1.86560788       7.25686477      -5.71112700
H        -1.50942583       7.47126115      -4.18806672
H        -0.04084958       8.36075749      -4.56405313
H        -0.04248427       7.18233039      -3.25411528
H         1.24591555       3.95215019      -4.39648285
H         0.22737689       1.90704741      -3.62526065
H        -3.16376899      -3.10389370       2.01161248
H         0.36876555      -2.48237731       2.85862667
H         1.18494326      -2.81493811       5.13777765
H         1.90157803      -4.45958131       6.69398181
H         0.80026640      -5.81048933       6.95925907
H         1.46204880      -4.93157192       8.32903701
H         1.16471441      -2.08852752       7.26493623
H         0.70748348      -2.62740146       8.87092059
H        -0.46699234      -1.79447144       7.86312453
H        -1.46847177      -5.42610145       8.00168104
H        -2.02960813      -3.77726218       8.33916629
H        -0.71909783      -4.47938510       9.26987280
H        -2.56010261      -4.56615022       6.21459953
H        -3.35111315      -4.24844015       3.94554315
H        -4.14937634      -3.60403550      -0.12240093
