113
strain_lig_044 ligand at complex geometry  charge=0 uhf=0  from=66|CCCCCCCCCCN(CCCCCCCCCC)C(=O)COCC(=O)N(CCCCCC)CCCCCC|water
C         0.96372390      -6.21158285       4.83440893
C         0.03011442      -5.36651070       3.97488702
C        -0.32762042      -4.01604716       4.59869391
C         0.77953279      -2.96773793       4.50260758
C         0.36576086      -1.62397967       5.09532547
C         1.42057354      -0.53973697       4.86411829
C         1.02721376       0.77941764       5.55002547
C         1.22330432       2.07866598       4.76131427
C         2.68265638       2.38408722       4.38812906
C         3.01949915       2.23857864       2.89951565
N         2.28685760       3.15639140       2.01035644
C         2.44677033       4.58621189       2.22857367
C         3.59179200       5.22084980       1.42649039
C         5.01183502       4.78943150       1.83136012
C         5.58623011       3.71928932       0.90019093
C         6.94759243       3.16519318       1.32896771
C         7.39063111       2.07085605       0.35393317
C         8.80792116       1.52913546       0.52998502
C         9.07573863       0.78957059       1.83870896
C         8.20821923      -0.44594399       2.09372166
C         8.52457032      -1.61375715       1.16337533
C         1.63157568       2.65801477       0.97780650
O         1.75343366       1.45388426       0.63586311
C         0.65525375       3.48596434       0.11237279
O        -0.07868984       2.54285548      -0.67853317
C        -0.15789563       2.80413892      -2.08477721
C        -0.35812487       1.45269885      -2.77685157
O        -0.29923446       0.42526612      -2.05561594
N        -0.51377957       1.34878145      -4.08410216
C        -0.73070074       2.46131198      -4.99556109
C         0.47367254       2.83388779      -5.87177638
C         0.16137509       4.11838168      -6.65878098
C         1.35668710       5.05949188      -6.86202673
C         2.35493757       4.64796577      -7.95231139
C         3.56005642       3.87312349      -7.43658851
C        -0.57123933      -0.01176142      -4.63426616
C         0.79438046      -0.72780084      -4.59779847
C         1.67326962      -0.65662269      -5.86130195
C         3.01585212       0.01307111      -5.55945496
C         3.98412809       0.01592894      -6.74219628
C         5.30484451       0.69699188      -6.39174586
H         1.20243432      -7.13626215       4.31301820
H         0.48730763      -6.46885724       5.77790820
H         1.89404264      -5.68965073       5.05131237
H        -0.89208357      -5.92461687       3.80496140
H         0.49266216      -5.20635761       2.99470432
H        -0.57683729      -4.16454155       5.64868088
H        -1.22625324      -3.62331553       4.11160101
H         1.06819297      -2.80416683       3.45945970
H         1.65672495      -3.33052732       5.03477059
H         0.20878728      -1.74705387       6.16560647
H        -0.59477748      -1.32703540       4.66037733
H         1.59713471      -0.43239703       3.78625278
H         2.35726350      -0.90509494       5.27569910
H         1.57861103       0.86861782       6.48633390
H        -0.02479608       0.72427913       5.82269867
H         0.85008675       2.88094560       5.39968584
H         0.61371064       2.09296986       3.85465670
H         3.33830412       1.70435276       4.93676878
H         2.94755183       3.38496778       4.72497805
H         2.80980634       1.21514989       2.57826779
H         4.08197604       2.43070401       2.76065420
H         2.65207792       4.74553304       3.28524343
H         1.50783342       5.07805788       1.97499139
H         3.48377571       6.29242916       1.58666597
H         3.46842643       5.02963706       0.36107157
H         5.02910843       4.43829288       2.86314898
H         5.66398414       5.66221897       1.80069112
H         5.70660661       4.15971882      -0.09132274
H         4.88238928       2.88730410       0.80205733
H         6.89170427       2.76657909       2.34120021
H         7.67107551       3.97944097       1.33403557
H         7.33194443       2.48291714      -0.65657303
H         6.68490187       1.23950132       0.41893633
H         9.51033274       2.35844568       0.46114883
H         9.01305984       0.86024303      -0.30742221
H         8.94997332       1.48460576       2.66860636
H        10.12070325       0.47534449       1.83982816
H         7.14698002      -0.18388165       2.02095671
H         8.39380107      -0.76998882       3.12015855
H         8.37114164      -1.34375385       0.12000443
H         7.89655207      -2.47376215       1.40014107
H         9.56369160      -1.91226895       1.28060269
H         1.21189725       4.18113424      -0.52762192
H        -0.04770384       4.06184128       0.73024004
H         0.79118759       3.22322455      -2.43734657
H        -0.97324705       3.51104300      -2.27315577
H        -1.00910879       3.34047328      -4.41268236
H        -1.57310258       2.18867990      -5.63894285
H         0.71619891       2.03037539      -6.56457704
H         1.34262249       2.99789964      -5.23241927
H        -0.60137643       4.67880196      -6.11195689
H        -0.26471797       3.86213629      -7.63092684
H         1.88544342       5.19097014      -5.91459145
H         0.93862164       6.03013015      -7.12896742
H         2.71888946       5.55172876      -8.44033979
H         1.84155098       4.05660601      -8.71045582
H         4.12691335       4.47643553      -6.73086904
H         4.21676267       3.62536585      -8.26593200
H         3.25648365       2.95207467      -6.94726063
H        -0.96436017       0.03908230      -5.64763976
H        -1.27607909      -0.58145112      -4.02095507
H         0.61601252      -1.77468023      -4.34375317
H         1.35735028      -0.27285092      -3.78352255
H         1.17440398      -0.10791227      -6.65873037
H         1.85202426      -1.66406241      -6.23492050
H         3.50062882      -0.50323266      -4.72582620
H         2.83501123       1.04601636      -5.25405189
H         3.52952729       0.52723063      -7.59282699
H         4.18291965      -1.01344753      -7.04316606
H         5.14119423       1.70583833      -6.01819295
H         5.93879247       0.76390186      -7.26962281
H         5.85192150       0.13088791      -5.64142557
