149
strain_lig_062 ligand at complex geometry  charge=0 uhf=0  from=66|CCCCCCCCN(CCCC(CCCC)CCCCCC)C(=O)COCC(=O)N(CCCCCCCC)CCCC(CCCC)CCCCCC|water
C        -3.16298604      -3.73089334      -2.05446063
C        -2.22212899      -3.18735733      -0.97949133
C        -2.86947987      -3.08345780       0.40823240
C        -3.34618957      -1.70086950       0.84270845
C        -3.62466777      -1.62304691       2.35246711
C        -4.56987083      -0.48257383       2.72843517
C        -4.05001807       0.89881812       2.31944778
C        -3.27548561       1.67491065       3.38500403
N        -1.90234111       1.26990946       3.74526794
C        -1.63576933       1.34766895       5.17629237
C        -2.36300380       0.28843090       6.01136538
C        -1.87753170       0.37555769       7.46440962
C        -0.49544280      -0.25580994       7.72303307
C         0.48464994       0.69665165       8.42585127
C         1.07565055       1.83186462       7.58120268
C         0.28362363       3.13921364       7.62740122
C         1.00267290       4.26641449       6.89374053
C        -0.65445760      -1.51801450       8.58934980
C        -1.41669526      -2.67748939       7.94430129
C        -0.79535722      -3.28508859       6.68515627
C         0.56008834      -3.96891235       6.89592810
C         1.79142379      -3.06962731       6.77247786
C         1.98001992      -2.45339167       5.38798778
C        -0.95894533       1.10324772       2.84206370
O        -1.19152378       1.09498630       1.60661624
C         0.53872028       0.96450087       3.24607109
O         1.24470803       0.71179326       2.03124074
C         2.57038718       1.21808055       1.90150539
C         2.79695029       1.34950957       0.38913385
O         1.93616600       0.82448979      -0.35009642
N         3.83168700       2.03539000      -0.07450248
C         4.97131612       2.29484635       0.82047144
C         6.15743107       3.03949929       0.21896939
C         5.90933777       4.53990520       0.07701618
C         7.05841592       5.26611198      -0.62788017
C         6.95827852       5.31567873      -2.15288879
C         7.34633385       4.03068530      -2.87683187
C         7.39897432       4.22125940      -4.39066449
C         7.75563918       2.92758793      -5.11298569
C         3.84216627       2.31745930      -1.51362075
C         3.14814827       3.64349407      -1.90741321
C         2.30793102       3.43314783      -3.16675215
C         1.69922616       4.66464379      -3.86833827
C         2.74536596       5.62399533      -4.47683731
C         3.16694242       6.85614367      -3.68408264
C         4.06864741       7.75726957      -4.52485888
C         4.42142051       9.03555856      -3.77871292
C         0.48909509       5.37911992      -3.23580874
C         0.57880105       6.13803269      -1.90349351
C        -0.45935617       7.26980975      -1.92585865
C        -0.81083246       7.90727141      -0.58324115
C         0.37138603       8.51576247       0.17001126
C         0.91304804       9.76130062      -0.51802001
H        -2.64064514      -3.83752866      -3.00530141
H        -4.02576817      -3.08287580      -2.19044627
H        -3.52303326      -4.71604629      -1.76727908
H        -1.82710256      -2.20721297      -1.27511363
H        -1.37146703      -3.87000994      -0.89530544
H        -2.15694025      -3.44601044       1.14955406
H        -3.72209993      -3.75514224       0.43037416
H        -4.26258205      -1.45933038       0.30681778
H        -2.59305992      -0.94710499       0.56950436
H        -2.69254607      -1.49079234       2.90693378
H        -4.08953591      -2.55809444       2.66890263
H        -4.74101726      -0.51549465       3.80682292
H        -5.52924975      -0.65219957       2.23454040
H        -4.90701061       1.53544871       2.09350045
H        -3.45836533       0.81705059       1.41281274
H        -3.84879888       1.64457992       4.30961490
H        -3.21591434       2.71492043       3.05049662
H        -1.95039834       2.33720908       5.52142053
H        -0.56648873       1.25614917       5.35038745
H        -2.18389110      -0.70285323       5.58934479
H        -3.44219420       0.45879759       5.99936451
H        -2.61988226      -0.11314309       8.09402628
H        -1.87489064       1.42430784       7.75924536
H        -0.04932795      -0.55334861       6.76623893
H         1.31354841       0.08596578       8.78172129
H         0.00306512       1.12318441       9.30478270
H         1.20760524       1.50635756       6.54221502
H         2.07177649       2.05395390       7.96714184
H         0.14946117       3.42854150       8.67049615
H        -0.70873030       3.01591811       7.19169234
H         1.95797699       4.48020462       7.36504588
H         0.40548365       5.17552742       6.91196768
H         1.18898697       3.99642183       5.85357386
H        -1.18249694      -1.24405493       9.50491506
H         0.33158193      -1.86869556       8.89035942
H        -2.43536974      -2.36427982       7.69884719
H        -1.50013862      -3.46799527       8.69327535
H        -0.72390317      -2.52967897       5.89736859
H        -1.50250082      -4.04340497       6.34012139
H         0.66102057      -4.77763043       6.16709661
H         0.57346452      -4.42399700       7.88763607
H         2.66754371      -3.67946541       6.99940701
H         1.75213762      -2.26905598       7.50860585
H         2.04411916      -3.23207506       4.62911028
H         2.89777876      -1.86771296       5.36923594
H         1.14905663      -1.79013446       5.13854271
H         0.71267719       0.13669006       3.94422902
H         0.88265881       1.90076743       3.69843852
H         3.29925244       0.53084890       2.35307006
H         2.66175185       2.20885243       2.36018157
H         5.32993695       1.32246810       1.17373323
H         4.61335721       2.85806482       1.68831894
H         6.46500551       2.58633383      -0.72025935
H         6.99889407       2.89325104       0.89966829
H         5.78820051       4.94669073       1.08594737
H         4.97560036       4.72346065      -0.45460392
H         8.00637308       4.81564050      -0.32977616
H         7.05548029       6.29056646      -0.26102044
H         7.61956869       6.10816599      -2.49928759
H         5.94671642       5.60643730      -2.44054952
H         6.62668316       3.23581086      -2.66859985
H         8.32378503       3.69874060      -2.52444482
H         8.13944167       4.98414866      -4.62915640
H         6.42841761       4.57977995      -4.74353302
H         8.73672849       2.57755283      -4.80271972
H         7.77400322       3.08148280      -6.18853019
H         7.02874771       2.14645568      -4.89247646
H         3.30953229       1.48895365      -1.99006945
H         4.86211692       2.31707615      -1.88628429
H         3.88809090       4.40995538      -2.13293329
H         2.53468342       4.01347106      -1.08300542
H         1.51569781       2.70268887      -2.96964401
H         2.95621053       2.96955242      -3.91636831
H         1.24018115       4.19731246      -4.74115059
H         2.32693916       5.99564090      -5.41536853
H         3.62737847       5.03748727      -4.74542670
H         3.68569403       6.57472795      -2.76401050
H         2.28581089       7.44222527      -3.42753674
H         3.54031210       8.01555116      -5.44494006
H         4.97904959       7.22220656      -4.80140217
H         3.51946819       9.57602265      -3.50208919
H         5.02695270       9.68509528      -4.40165383
H         4.97757433       8.81409419      -2.87173030
H        -0.33761782       4.65568847      -3.17087727
H         0.17924642       6.09403824      -4.00120666
H         1.57206554       6.55082529      -1.75257848
H         0.38236534       5.45902411      -1.07595725
H        -1.38269413       6.88636342      -2.36713754
H        -0.10371463       8.05308342      -2.59282676
H        -1.30695924       7.17895039       0.06039662
H        -1.54309040       8.69164153      -0.78242082
H         1.17143230       7.77792011       0.28433155
H         0.03357009       8.78457726       1.17445063
H         1.30393202       9.52849828      -1.50531535
H         1.70973578      10.20370332       0.07296500
H         0.12249890      10.49873149      -0.62780491
