90
strain_lig_091 ligand at complex geometry  charge=0 uhf=0  from=63|CCCCCCCCN(CCCCCCCC)C(=O)COCP(=O)(OCCCC)OCCCC|water
C        -3.98867422       1.70884511       3.58068427
C        -3.83696170       0.66709221       4.68277857
C        -3.23672777      -0.63591568       4.15935849
C        -3.14342434      -1.69952139       5.25361023
C        -2.45535057      -2.99013768       4.80199876
C        -1.03718602      -2.79698787       4.25562371
C        -0.06790916      -2.21872868       5.29364209
C         1.15531480      -1.55435910       4.65311541
N         0.96278783      -0.12211981       4.40624273
C         1.35024343       0.77725088       5.49335515
C         2.62712358       1.58837233       5.21985008
C         3.85872433       0.74440032       4.84810893
C         4.46499449       1.11143814       3.48677894
C         5.43053638       2.30271078       3.52478027
C         4.82103308       3.68051037       3.78565020
C         3.85361248       4.17561378       2.70851245
C         4.51782104       4.38630656       1.35163922
C         0.47670164       0.26569061       3.25676243
O         0.15237105      -0.54322708       2.33634504
C         0.34749498       1.73567338       2.85088025
O         1.23981521       1.83018211       1.71656315
C         0.99145801       2.93202278       0.88445450
P         0.33948951       2.30636789      -1.68773116
O         0.02172507       2.50373071      -0.05573556
O         1.50159418       1.14211417      -1.44258214
C         2.46548839       0.90850935      -2.52955405
C         3.04239190      -0.49280783      -2.36377035
C         4.28441180      -0.53912120      -1.46710657
C         5.51474896       0.11378749      -2.07831638
O        -0.86706495       1.21383776      -1.79687810
C        -2.18513426       1.65561294      -2.25352430
C        -2.73671160       0.63176402      -3.24251673
C        -2.33203539       0.88413136      -4.70046933
C        -0.87345914       0.60041371      -5.03872410
H        -4.38882680       2.63158529       3.99081840
H        -4.68230673       1.36006872       2.81728441
H        -3.02324199       1.93268550       3.11607333
H        -4.81596826       0.46474494       5.11725780
H        -3.20335510       1.06438060       5.47863036
H        -2.23515103      -0.41769878       3.76496649
H        -3.86407103      -1.02291077       3.34938423
H        -4.15063939      -1.95267961       5.58619765
H        -2.62416329      -1.28044996       6.11556434
H        -3.06189905      -3.46303087       4.02563305
H        -2.41677118      -3.67691832       5.64905079
H        -1.06034543      -2.14422271       3.37858381
H        -0.65767936      -3.76714596       3.92438895
H         0.27446301      -3.02483331       5.94330140
H        -0.57391702      -1.48334622       5.91968959
H         1.39153106      -2.03969693       3.70239564
H         2.01215522      -1.65241973       5.31787312
H         1.51158728       0.14794108       6.37022504
H         0.52336912       1.45883830       5.71076728
H         2.82345683       2.15139151       6.13281057
H         2.45814534       2.31624469       4.42880435
H         3.59364694      -0.31413324       4.83454742
H         4.63045322       0.86055264       5.60902935
H         3.66312159       1.28758444       2.75805782
H         5.04213188       0.25121462       3.13645550
H         5.96948444       2.33765189       2.57722300
H         6.17097321       2.10897551       4.30255534
H         5.64316410       4.39441523       3.84728491
H         4.31888948       3.68950818       4.75398570
H         3.43659796       5.12656230       3.04542289
H         3.01977944       3.47319521       2.59779100
H         5.38425212       5.03465816       1.45508212
H         3.82703549       4.86800548       0.66001893
H         4.84482821       3.44196795       0.91762006
H         0.64027346       2.46840438       3.60501725
H        -0.69778988       1.91360608       2.53916041
H         1.94721135       3.19802430       0.41705478
H         0.57642746       3.78319608       1.43656006
H         3.25060303       1.65991330      -2.43809037
H         1.97051449       1.02134398      -3.49833617
H         3.29921271      -0.87942860      -3.35070475
H         2.26069504      -1.14357961      -1.92467223
H         4.51425485      -1.58586504      -1.27650897
H         4.07084262      -0.05363773      -0.51194609
H         5.67698206      -0.23310210      -3.09150805
H         6.39178787      -0.14617786      -1.49542978
H         5.44430698       1.19601439      -2.10018554
H        -2.10874718       2.64662842      -2.71098283
H        -2.82456201       1.73789783      -1.36754433
H        -3.82757719       0.65643145      -3.18687286
H        -2.41419589      -0.36224856      -2.90997383
H        -2.56443762       1.92136903      -4.94773024
H        -2.95168756       0.25141026      -5.33656177
H        -0.19143498       1.22417041      -4.45767442
H        -0.71813576       0.82404464      -6.09157514
H        -0.62981823      -0.45291445      -4.88678763
