88
strain_lig_090 ligand at complex geometry  charge=0 uhf=0  from=63|CCCCCCCCN(CCCCCCCC)C(=O)COCP(=O)(CCCC)CCCC|nitrate
C         3.80208318       4.26392220      -6.14161350
C         2.88498999       3.84677567      -7.28535433
C         1.61428230       3.11353575      -6.85620639
C         0.65001286       3.99141133      -6.05760696
C        -0.72855594       3.33969098      -5.94427689
C        -1.79327606       4.23327467      -5.28680654
C        -2.10936604       3.87201014      -3.83312167
C        -0.88874185       4.10786885      -2.94576431
N        -1.18427775       4.16090365      -1.51882799
C        -1.78063883       5.39789276      -1.03403158
C        -0.83041751       6.38817849      -0.35323361
C         0.21973423       7.00780335      -1.27480954
C         0.98133611       8.14976360      -0.58989435
C         1.85447359       7.77394956       0.61202957
C         3.27709814       7.30762083       0.29130200
C         3.35998434       5.92064610      -0.36390203
C         3.63360202       5.97884406      -1.86479482
C        -0.98239484       3.08737892      -0.76286103
O        -0.67428307       1.97066618      -1.22067167
C        -1.06910139       3.29415551       0.75111502
O        -0.78130689       2.08111365       1.42758920
C        -1.77573633       1.72715510       2.36807504
P        -3.21417530       0.95444261       1.45382324
O        -2.56811558       0.18180763       0.34407917
C        -4.33879639       2.22184059       0.73516573
C        -4.77648886       3.40916791       1.60217304
C        -6.05344134       3.14866456       2.39845830
C        -6.47610887       4.38638885       3.17585402
C        -3.97465649      -0.03148517       2.81103031
C        -5.44190394      -0.46481830       2.70337583
C        -5.65868182      -1.88300936       2.17671592
C        -5.03094291      -2.96789477       3.03964623
H         4.63080048       4.84910188      -6.53132002
H         3.27589621       4.87644947      -5.41238748
H         4.22068593       3.39414952      -5.63858124
H         2.59792812       4.73560059      -7.84797370
H         3.44549771       3.20278735      -7.96473407
H         1.10587312       2.77478678      -7.76099408
H         1.86737874       2.22400594      -6.27607993
H         1.05786403       4.18601558      -5.06229207
H         0.54322213       4.94804874      -6.57028933
H        -1.05904007       3.09295200      -6.95381014
H        -0.64558862       2.40031942      -5.39256110
H        -1.47496519       5.27511714      -5.33434611
H        -2.72121283       4.17015884      -5.85447736
H        -2.93756354       4.49759368      -3.49051189
H        -2.42795749       2.82922293      -3.75828700
H        -0.15854977       3.31330025      -3.10474952
H        -0.44078014       5.06855265      -3.20916403
H        -2.21481556       5.88280188      -1.90833916
H        -2.59590533       5.15160614      -0.34679644
H        -1.45718942       7.18742396       0.04643266
H        -0.33420990       5.91212929       0.49101825
H         0.91097530       6.24171666      -1.62470469
H        -0.28189402       7.43198743      -2.14720844
H         1.60861902       8.63864492      -1.33455763
H         0.24596338       8.88713721      -0.26157151
H         1.94385706       8.66817180       1.23032907
H         1.35729122       7.01722226       1.22164561
H         3.76167497       8.04495740      -0.34570523
H         3.83033139       7.28933093       1.23263253
H         4.16101410       5.34690345       0.11309902
H         2.42150247       5.39259050      -0.17021653
H         4.66192800       6.27397706      -2.05104783
H         3.46974753       5.00500862      -2.32695370
H         2.98757688       6.70399750      -2.35036675
H        -0.32235648       4.04143066       1.05246448
H        -2.05557024       3.66930161       1.03342417
H        -1.33176479       0.95001859       3.00451262
H        -2.04231695       2.58617169       2.98630964
H        -3.83645114       2.56124686      -0.17668336
H        -5.21758926       1.67128859       0.39055465
H        -3.98691013       3.69839494       2.30106209
H        -4.96454398       4.26328515       0.94650526
H        -6.85014955       2.86067799       1.70967963
H        -5.89718999       2.32403492       3.09671987
H        -6.63649863       5.22635910       2.50623961
H        -7.40185179       4.19267131       3.70565721
H        -5.71379335       4.65920209       3.90013194
H        -3.32162079      -0.90002283       2.93683617
H        -3.85745574       0.59301875       3.69694827
H        -5.88995138      -0.40315471       3.69772137
H        -5.98951690       0.22947945       2.06597328
H        -6.73604384      -2.05495433       2.14763742
H        -5.28341800      -1.95016038       1.15346960
H        -5.37538121      -2.88005240       4.06332583
H        -5.32374915      -3.94763073       2.67700181
H        -3.94575547      -2.92322994       3.04387695
