58
lig_074 free ligand  charge=0 uhf=0  ETKDGv3 + MMFF94s  smiles=CCCCCCCCN(CCCCCCCC)C(=O)CO
C        -5.42295794       1.48133630      -0.19976718
C        -5.21730147       0.70803891       1.09347689
C        -4.33376682       1.43619734       2.10541976
C        -2.89293815       1.72997884       1.66972845
C        -2.01294788       0.48778674       1.48306008
C        -1.94374165      -0.07235253       0.05732814
C        -1.19179969       0.84163236      -0.91511474
C        -1.12606348       0.30739620      -2.35337062
N        -0.34863087      -0.92570594      -2.52643814
C         1.06203594      -0.80035682      -2.91885602
C         1.99006495      -0.23867532      -1.83934438
C         2.06621999      -1.12389463      -0.59301168
C         2.87287328      -0.49447146       0.54805488
C         4.34674668      -0.28309311       0.20387281
C         5.22299663       0.09381307       1.40445155
C         4.88729562       1.44370531       2.04524511
C         3.96044233       1.32718364       3.24676857
C        -1.02375891      -2.14066352      -2.43941447
O        -2.23914523      -2.22000010      -2.23005706
C        -0.22417941      -3.43803326      -2.61020030
O        -1.01216646      -4.58758189      -2.32201585
H        -6.12494085       0.94752523      -0.84839346
H        -5.83659809       2.47494109      -0.00004304
H        -4.48782158       1.60330652      -0.75300047
H        -4.81398806      -0.28602224       0.87728958
H        -6.19930924       0.54295076       1.55389192
H        -4.81278181       2.38970446       2.36274120
H        -4.31138156       0.84997952       3.03275688
H        -2.88308885       2.37439710       0.78658244
H        -2.44244816       2.32676725       2.47433504
H        -0.99085259       0.73933877       1.79523134
H        -2.34873830      -0.30570534       2.16175179
H        -2.94570457      -0.27835066      -0.32678196
H        -1.42391046      -1.03531701       0.11491382
H        -0.18703168       1.02567111      -0.52582599
H        -1.68916213       1.81676552      -0.95685598
H        -0.69044723       1.07558015      -3.00328674
H        -2.14731598       0.14239923      -2.71746844
H         1.09187366      -0.14414886      -3.79731367
H         1.45693497      -1.76191780      -3.25547923
H         1.68352267       0.77613017      -1.56807441
H         2.99102635      -0.14662616      -2.27767651
H         1.05717521      -1.32352547      -0.21617559
H         2.50140225      -2.09491334      -0.85808819
H         2.41176227       0.46179922       0.81900716
H         2.79589640      -1.15123161       1.42300623
H         4.44337393       0.49372745      -0.56363844
H         4.74965048      -1.20633581      -0.23096379
H         6.25692683       0.14532001       1.03895444
H         5.20267217      -0.70772699       2.15236809
H         5.82139799       1.90026931       2.39563315
H         4.46097187       2.13137780       1.30630770
H         3.79224350       2.31537396       3.68702658
H         4.40098879       0.68755847       4.01846361
H         2.98656156       0.91309551       2.97675355
H         0.11566042      -3.51607912      -3.64645843
H         0.63240318      -3.44344047      -1.93264934
H        -1.93620079      -4.26487785      -2.27021619
