43
lig_152 free ligand  charge=0 uhf=0  ETKDGv3 + MMFF94s  smiles=CCOP(=S)(COCP(=S)(OCC)OCC)OCC
C         2.37931825       3.44788041      -2.66257132
C         2.28351464       2.22258202      -1.77650609
O         1.55208522       1.22473962      -2.46631713
P         1.60066651      -0.32113192      -1.97892444
S         0.53171393      -1.51134923      -3.08539460
C         1.20901821      -0.25906646      -0.20270127
O        -0.02648300       0.44014868      -0.00190424
C        -1.16829321      -0.41794611       0.12311618
P        -1.53935426      -0.69795725       1.88269438
S        -0.32929647      -1.85320150       2.87502668
O        -1.67317175       0.78817206       2.51762936
C        -2.52270211       1.75339090       1.92334783
C        -2.75921540       2.86691697       2.92323106
O        -3.09142600      -1.17185547       1.86192577
C        -3.41730174      -2.47328538       1.40003943
C        -4.89035136      -2.50360177       1.04819760
O         3.19837181      -0.60576826      -1.99505955
C         3.68024304      -1.89742044      -1.65936997
C         5.14835873      -1.78523191      -1.30351219
H         1.38104744       3.81497710      -2.92302343
H         2.88469872       3.20449767      -3.60303314
H         2.93067073       4.24907199      -2.16257289
H         3.28669359       1.86280206      -1.53044016
H         1.76057272       2.47632031      -0.85000888
H         1.98935375       0.31011670       0.31089089
H         1.18998250      -1.26386102       0.22781775
H        -1.03172273      -1.36685121      -0.40247837
H        -2.01408230       0.10082010      -0.33752750
H        -3.47706065       1.30171274       1.63778725
H        -2.03925970       2.15629657       1.02880961
H        -1.81051844       3.32383974       3.22378894
H        -3.22637642       2.47499689       3.83277762
H        -3.40533266       3.64100481       2.49989223
H        -2.81812973      -2.72576042       0.52027968
H        -3.20743572      -3.19730127       2.19288813
H        -5.18685690      -3.49467188       0.69365206
H        -5.11515205      -1.76745974       0.26926446
H        -5.50076746      -2.24226244       1.91893781
H         3.12068148      -2.30368271      -0.81168432
H         3.55388706      -2.56119889      -2.51976738
H         5.71807313      -1.36973115      -2.14129554
H         5.56333024      -2.76334690      -1.04480776
H         5.28800837      -1.10634402      -0.45569948
