59
lig_138 free ligand  charge=0 uhf=0  ETKDGv3 + MMFF94s  smiles=CCCCP(=S)(CCCC)CP(=S)(CCCC)CCCC
C         3.29083131      -3.10540789       2.54155610
C         3.90013394      -1.76434017       2.92076151
C         3.75769083      -0.69906139       1.83235213
C         2.30816441      -0.31049843       1.55158895
P         2.09409329       1.05090657       0.37450149
S         2.84723112       2.75749937       0.96185756
C         2.78894147       0.40698374      -1.16535472
C         2.43767216       1.19704224      -2.42205879
C         3.12657871       0.61834533      -3.65692868
C         2.76928905       1.40015010      -4.91089770
C         0.29062008       1.13825289       0.13349358
P        -0.92857380      -0.20270280      -0.07338791
S        -0.34418812      -1.65546642      -1.23367669
C        -1.33015465      -0.66367018       1.62839048
C        -2.16846490      -1.91655692       1.86882057
C        -3.59884866      -1.81601913       1.34917109
C        -4.43660647      -3.00483043       1.79666131
C        -2.37052473       0.69579510      -0.72999924
C        -2.92589149       1.83401917       0.12032650
C        -4.15196840       2.51055536      -0.49755176
C        -3.84876230       3.25867259      -1.78654058
H         3.69769351      -3.46792403       1.59231273
H         3.51377688      -3.85018008       3.31235574
H         2.20257934      -3.04053779       2.45036627
H         3.44611562      -1.40839023       3.85287187
H         4.96746896      -1.91163799       3.12452909
H         4.31685333       0.18957683       2.14508371
H         4.23076085      -1.05089231       0.90869086
H         1.81926458      -0.02240444       2.48903201
H         1.77345330      -1.17840912       1.15770453
H         3.87953385       0.38985275      -1.04950528
H         2.48581901      -0.63599122      -1.28841593
H         1.35311102       1.18858951      -2.57277035
H         2.72940017       2.24513085      -2.29189838
H         4.21401978       0.63593464      -3.51988835
H         2.83289072      -0.42930472      -3.79072679
H         3.27280029       0.96983598      -5.78221014
H         3.07835127       2.44654120      -4.82216314
H         1.69046799       1.37461770      -5.09495278
H        -0.07404343       1.70087967       1.00178493
H         0.14764946       1.80537398      -0.72444304
H        -0.37628359      -0.82813623       2.13947427
H        -1.78628539       0.18675184       2.14389300
H        -1.67661626      -2.78582281       1.41836429
H        -2.19442817      -2.10091697       2.95037108
H        -4.06795252      -0.89264058       1.70600306
H        -3.59864438      -1.79070147       0.25629155
H        -4.49901038      -3.05269970       2.88851052
H        -4.00802118      -3.94492564       1.43478505
H        -5.45411007      -2.92089484       1.40217556
H        -3.16801650      -0.02403496      -0.93629997
H        -2.05849107       1.09152842      -1.70334261
H        -2.14789919       2.58301491       0.30126599
H        -3.21811511       1.44582702       1.10050175
H        -4.55706931       3.22390312       0.23021518
H        -4.93619386       1.76710728      -0.68183578
H        -3.55982355       2.57481004      -2.58978810
H        -3.04138793       3.98309127      -1.64023402
H        -4.73688088       3.80440944      -2.12119356
