36
lig_005 free ligand  charge=0 uhf=0  ETKDGv3 + MMFF94s  smiles=CC(C)(C)c1ccc(NC(=O)c2cnccn2)cc1
C        -4.39770300      -0.57592419       1.25454618
C        -3.71103947       0.18084590       0.09511375
C        -4.13076631       1.66259701       0.20534138
C        -4.26154654      -0.40628787      -1.22250966
C        -2.17654444       0.07548219       0.10720662
C        -1.47057843      -0.64282295       1.08311494
C        -0.07086368      -0.71669844       1.06188008
C         0.66733553      -0.07535052       0.06511097
N         2.06619059      -0.19895621       0.11595676
C         3.00540407       0.33607986      -0.74537256
O         2.80115601       1.03068308      -1.73313876
C         4.40513480      -0.01381477      -0.36665151
C         5.47167884       0.44290482      -1.12627042
N         6.75994756       0.14611374      -0.81423118
C         6.92777915      -0.62369937       0.28600644
C         5.86095121      -1.08061443       1.04592328
N         4.57255176      -0.79196704       0.74567643
C        -0.01583230       0.64170393      -0.91105181
C        -1.41539742       0.71494334      -0.88890345
H        -5.48821021      -0.47164644       1.20340904
H        -4.08297008      -0.18958126       2.23100114
H        -4.17529693      -1.64894166       1.22377952
H        -5.22208021       1.76322330       0.23405737
H        -3.72949318       2.11940774       1.11780895
H        -3.77680778       2.25798729      -0.64340383
H        -3.95522076      -1.45175102      -1.34685463
H        -5.35725520      -0.37520253      -1.24177328
H        -3.91032098       0.14588399      -2.10108512
H        -1.98451141      -1.16430424       1.88564262
H         0.42912813      -1.28625619       1.84115408
H         2.46145352      -0.74851882       0.87595895
H         5.32610021       1.05978471      -2.00689619
H         7.95306711      -0.86629476       0.54363923
H         6.02005250      -1.69680953       1.92433695
H         0.50703299       1.15938125      -1.70888653
H        -1.90252564       1.28842010      -1.67505694
