122
lig_093 free ligand  charge=0 uhf=0  ETKDGv3 + MMFF94s  smiles=CCCCCCCCN(CCCCCCCC)C(=O)[C@H](C)O[C@@H](CC)C(=O)N(CCCCCCCC)CCCCCCCC
C         7.86831183      -4.66821289      -2.91167015
C         6.93858266      -4.22875187      -1.79081421
C         5.50576084      -4.70113605      -2.03788910
C         4.55143187      -4.38833379      -0.88130781
C         4.40668043      -2.90826338      -0.51087599
C         3.87386940      -2.04374556      -1.65592751
C         3.72044278      -0.56708131      -1.27667009
C         2.66240302      -0.32383524      -0.19690164
N         2.34907495       1.10016405      -0.01197058
C         3.42143361       1.95701393       0.50954961
C         4.07543838       2.80907438      -0.58362549
C         5.12799767       3.78099688      -0.04096995
C         6.34836152       3.07458415       0.55556767
C         7.50290250       4.02836030       0.88363152
C         7.17348342       5.01361335       2.00830335
C         8.32948612       5.96116893       2.34005559
C         9.53595485       5.26183723       2.94714030
C         1.10286296       1.69645321      -0.21977840
O         0.92778811       2.89904393       0.00757613
C        -0.07990083       0.82570749      -0.73068147
C         0.07387850       0.65696611      -2.23965805
O        -1.37361178       1.40689151      -0.51341479
C        -1.73416000       1.45390276       0.86961518
C        -2.65135916       2.66432147       1.10709058
C        -2.86932419       2.96033706       2.58444191
C        -2.34781525       0.13832032       1.41737961
O        -1.85699919      -0.35256429       2.44272635
N        -3.44324487      -0.45411341       0.79444790
C        -4.07932520      -1.58721758       1.47527852
C        -5.14269438      -1.11036673       2.46897654
C        -5.75983882      -2.24742843       3.28853351
C        -6.55949446      -3.23799555       2.43811146
C        -7.36807529      -4.23975475       3.27059666
C        -6.49278413      -5.20573501       4.07365295
C        -7.30112531      -6.21039935       4.89918658
C        -8.08366923      -7.20399666       4.05445509
C        -4.03403675      -0.03433995      -0.48183977
C        -3.64662556      -0.96616429      -1.63159061
C        -4.28091088      -0.59649490      -2.97784453
C        -3.87499602       0.77998358      -3.51767600
C        -4.93041026       1.85792712      -3.24985445
C        -4.44381368       3.27347898      -3.57476451
C        -4.12594459       3.48400285      -5.05535584
C        -3.75267618       4.93058004      -5.34155081
H         7.89508824      -5.75940833      -2.99469841
H         8.88695335      -4.31758613      -2.71832749
H         7.54423802      -4.25767376      -3.87333826
H         6.97208578      -3.13646654      -1.71770950
H         7.30572179      -4.63223903      -0.84017851
H         5.50819380      -5.78819938      -2.18874541
H         5.12522558      -4.26551796      -2.96879389
H         3.56121680      -4.78909111      -1.13188303
H         4.88680114      -4.93462673       0.00929477
H         5.36648286      -2.51224312      -0.16038934
H         3.72020191      -2.85003268       0.34174359
H         2.91007464      -2.43695212      -2.00108698
H         4.56162511      -2.09624036      -2.50737109
H         4.69097587      -0.17798882      -0.94714028
H         3.45023045      -0.00740587      -2.18047864
H         3.00711544      -0.70025626       0.77290226
H         1.76683936      -0.89141288      -0.44810437
H         2.99742999       2.61418039       1.27867728
H         4.16035383       1.32241343       1.01006939
H         3.30638021       3.39403701      -1.10249413
H         4.53014766       2.16758417      -1.34631048
H         4.66194733       4.43133844       0.70769095
H         5.45406292       4.42679831      -0.86549859
H         6.71555751       2.32891804      -0.16046802
H         6.06479249       2.53047810       1.46356697
H         7.79302654       4.57903609      -0.01927425
H         8.36518700       3.41693721       1.17250275
H         6.87917703       4.46287483       2.90983810
H         6.31438279       5.62834364       1.71716672
H         8.63703293       6.50523511       1.43947682
H         7.96811479       6.71044379       3.05466840
H        10.01539578       4.59055434       2.22898025
H         9.25071272       4.68008353       3.82929926
H        10.28173246       6.00140794       3.25614236
H        -0.07479966      -0.15173946      -0.24172494
H         1.03828868       0.22374744      -2.51516621
H        -0.01854416       1.62408974      -2.74757063
H        -0.71445925       0.01466344      -2.64161576
H        -0.82995500       1.62919025       1.46738118
H        -2.20414632       3.54558109       0.63000418
H        -3.62737387       2.53632520       0.63091275
H        -3.39396998       2.13967363       3.08299963
H        -1.91647836       3.12489709       3.09737076
H        -3.47572536       3.86425137       2.70101780
H        -4.52006865      -2.24993988       0.72527752
H        -3.31651871      -2.16949074       2.00480799
H        -4.69257321      -0.39086383       3.16452634
H        -5.93320583      -0.56678193       1.93726838
H        -4.96349685      -2.76960445       3.83059884
H        -6.42174924      -1.80483414       4.04295741
H        -5.88972422      -3.78819617       1.76750899
H        -7.25869722      -2.68063827       1.80253626
H        -8.00271018      -4.80715891       2.58058898
H        -8.04030994      -3.69812542       3.94690577
H        -5.86195430      -4.63855388       4.76723828
H        -5.81752215      -5.74408829       3.39771463
H        -6.60757615      -6.77028276       5.53808787
H        -7.98777202      -5.67822765       5.56772558
H        -8.55372855      -7.95470172       4.69797506
H        -8.87879120      -6.71154659       3.48743534
H        -7.42693771      -7.72506216       3.35075010
H        -3.72227844       0.97645014      -0.72698505
H        -5.12269554      -0.01253802      -0.35749934
H        -2.55649135      -0.99115770      -1.73208100
H        -3.94417844      -1.99437952      -1.39510102
H        -3.95466164      -1.35332723      -3.70293163
H        -5.37214300      -0.68316426      -2.91432797
H        -2.90480312       1.08284578      -3.10980251
H        -3.74463223       0.69010372      -4.60296891
H        -5.83252787       1.63725365      -3.83378858
H        -5.23217402       1.83890148      -2.19759182
H        -3.55811170       3.50325978      -2.96956133
H        -5.22479233       3.98160416      -3.27080982
H        -3.29357007       2.84117904      -5.36123240
H        -4.99361833       3.20896391      -5.66592065
H        -2.87036226       5.22888570      -4.76629223
H        -3.52530149       5.06003915      -6.40432423
H        -4.57497229       5.60637532      -5.08570805
