117
lig_066 free ligand  charge=0 uhf=0  ETKDGv3 + MMFF94s  smiles=CCCCCCCCN(CCCCCCCC)C(=O)C1CCC(C(=O)N(CCCCCCCC)CCCCCCCC)O1
C        -8.42286298      -3.73411747       5.62185534
C        -7.23099341      -2.90778360       6.07981440
C        -6.43617707      -2.29162190       4.92560312
C        -5.75868259      -3.33642848       4.03485284
C        -4.79451044      -2.72461957       3.01212406
C        -5.49426875      -1.83629294       1.97994720
C        -4.57792857      -1.40996883       0.82882659
C        -3.46172022      -0.46038940       1.26218665
N        -2.57359439      -0.08303918       0.15178560
C        -2.91836320       1.14380223      -0.57617009
C        -3.09218851       1.02909187      -2.09662163
C        -4.16039596       0.04008328      -2.57292424
C        -5.60539973       0.48746455      -2.32159463
C        -6.28323182       1.17051115      -3.51564790
C        -5.64572929       2.49662955      -3.92738859
C        -6.47111344       3.19680521      -5.00815694
C        -5.83545279       4.51230256      -5.42904413
C        -1.44109542      -0.88721926      -0.02075955
O        -1.37335478      -1.98101770       0.55397909
C        -0.29649773      -0.44205600      -0.96759450
C         0.27747982       0.94256520      -0.70344142
C         1.74529806       0.78623451      -1.02777058
C         2.01671683      -0.63530925      -0.57966393
C         2.40467556      -0.63803351       0.91977334
O         1.54352046      -0.80769742       1.78745224
N         3.73320857      -0.37102307       1.26622913
C         4.85238519      -0.20750413       0.32786011
C         5.78613767      -1.42622044       0.27819134
C         5.20092990      -2.65683202      -0.41988482
C         5.22539832      -2.53749237      -1.94731322
C         4.56566311      -3.75190363      -2.60494818
C         4.45691562      -3.63492246      -4.12787823
C         5.81236908      -3.62632236      -4.83545039
C         5.64793199      -3.62393425      -6.34772897
C         4.04129543      -0.27030665       2.69712144
C         3.57164721       1.04468285       3.33421248
C         4.25781416       2.27906675       2.74329048
C         3.85002118       3.55087877       3.48606948
C         4.35473925       4.84548848       2.83864335
C         5.88012063       4.98477935       2.78791678
C         6.47464154       4.56675852       1.44084481
C         7.98818657       4.71688853       1.43262680
O         0.82369289      -1.35289704      -0.89774883
H        -9.08440330      -3.14647367       4.97758571
H        -9.00294916      -4.06835251       6.48806041
H        -8.10569786      -4.62524582       5.07238201
H        -7.59504298      -2.09712736       6.72229900
H        -6.57198912      -3.52912184       6.69731622
H        -7.10406112      -1.66142028       4.32732034
H        -5.67090490      -1.63081632       5.35094894
H        -5.19184816      -4.03302443       4.66475998
H        -6.51383300      -3.92898498       3.50591597
H        -4.28152688      -3.54376454       2.49332217
H        -4.02484985      -2.15426740       3.54398695
H        -5.90295354      -0.94200515       2.46397125
H        -6.34381445      -2.38431007       1.55405995
H        -4.15606175      -2.29757591       0.34250224
H        -5.19662563      -0.91028987       0.07806463
H        -2.85800170      -0.92551064       2.04918783
H        -3.88016012       0.45038222       1.70677202
H        -2.15070554       1.88806452      -0.34891943
H        -3.84557832       1.54848977      -0.15479641
H        -3.31715811       2.02966018      -2.48030603
H        -2.14683483       0.75301660      -2.56613264
H        -4.01838200      -0.14640563      -3.64461592
H        -3.99191148      -0.92456714      -2.08069346
H        -6.19723102      -0.40945821      -2.09738133
H        -5.67686987       1.12988780      -1.43783800
H        -7.33385665       1.34481804      -3.25087924
H        -6.28872071       0.48522174      -4.37237919
H        -5.55641941       3.15171494      -3.05265222
H        -4.63599845       2.31894709      -4.31344977
H        -6.56530985       2.54564661      -5.88500705
H        -7.48424899       3.39036315      -4.63696820
H        -5.75543152       5.19861692      -4.57998306
H        -4.83228045       4.35074676      -5.83633817
H        -6.44165618       4.99625990      -6.20118261
H        -0.66044212      -0.52981890      -1.99386265
H        -0.18040955       1.71815121      -1.32309425
H         0.14620676       1.23143344       0.34599143
H         1.88707896       0.86697092      -2.11229742
H         2.36640008       1.54487126      -0.54301154
H         2.81376913      -1.09678177      -1.15924369
H         4.49396891       0.04361916      -0.67148186
H         5.43002473       0.66085099       0.66495788
H         6.06862314      -1.71445511       1.29723475
H         6.71576000      -1.13616199      -0.22690504
H         5.80150697      -3.53044781      -0.13588140
H         4.18416072      -2.85115335      -0.06188843
H         4.71416555      -1.62564869      -2.27141143
H         6.26694217      -2.45276184      -2.27744097
H         3.55278219      -3.87117298      -2.20026069
H         5.11952937      -4.66181441      -2.34383297
H         3.86722959      -4.48459563      -4.49413672
H         3.89723805      -2.72805752      -4.38775072
H         6.38829922      -2.74121040      -4.54530910
H         6.39374107      -4.50681886      -4.53870856
H         5.09361920      -2.74050704      -6.68038105
H         6.62777581      -3.61397943      -6.83534538
H         5.10983229      -4.51531510      -6.68570063
H         5.11884590      -0.39087538       2.85176794
H         3.55162088      -1.10570456       3.21219699
H         3.78087221       0.99652630       4.41002672
H         2.48580716       1.15113433       3.22914809
H         5.34320466       2.14601624       2.80683071
H         3.99148868       2.37896645       1.68506160
H         2.75509669       3.60339051       3.53603322
H         4.20702832       3.49934810       4.52214480
H         3.96096235       5.67616243       3.43864973
H         3.92077344       4.95845125       1.83802034
H         6.13187413       6.04041327       2.95312029
H         6.34568211       4.42252378       3.60590568
H         6.22178670       3.52871364       1.20694089
H         6.05050488       5.18707281       0.64246926
H         8.39282827       4.42221932       0.45928187
H         8.44874316       4.08377112       2.19773592
H         8.28116716       5.75447937       1.62201759
