62
lig_000 free ligand  charge=0 uhf=0  ETKDGv3 + MMFF94s  smiles=C1CCC2OCCOCCOC3CCCCC3OCCOCCOC2C1
C         5.67666208      -0.29316258      -0.78555512
C         5.40400847       1.20206070      -0.83591122
C         4.58625311       1.65396910       0.36625742
C         3.26677120       0.87874195       0.50182558
O         2.61642965       1.24743036       1.73363532
C         1.95716129       2.51662171       1.71653703
C         0.53996317       2.47522892       1.13133490
O         0.59095420       2.38964819      -0.29045450
C        -0.54559438       2.90816230      -0.98128193
C        -1.92973679       2.50571776      -0.45858902
O        -2.07909332       1.08733301      -0.43049133
C        -3.43891284       0.67383090      -0.24814251
C        -4.11074428       0.49009127      -1.61590358
C        -5.33217504      -0.43176574      -1.56915661
C        -5.97286498      -0.47368677      -0.18669530
C        -4.99659535      -0.92493871       0.90983126
C        -3.52197172      -0.62031012       0.58870790
O        -3.00701362      -1.78244781      -0.08238360
C        -1.58486352      -1.78194173      -0.22453838
C        -1.10503874      -3.23159738      -0.32513258
O         0.31762809      -3.32248353      -0.35451725
C         0.90293650      -3.25170144       0.95149393
C         2.32643580      -2.71263833       0.83801524
O         2.26185763      -1.32228882       0.50786922
C         3.53161964      -0.65042804       0.53138998
C         4.38334227      -1.08776941      -0.66847655
H         6.32475496      -0.52066329       0.06970546
H         6.21824180      -0.60026658      -1.68733752
H         6.35319969       1.74899989      -0.86318876
H         4.86575539       1.44843512      -1.75935444
H         5.17514283       1.53546223       1.28527911
H         4.39640355       2.72843338       0.27542300
H         2.60724708       1.09621009      -0.34388573
H         1.87790965       2.82072009       2.76586203
H         2.56370683       3.26914994       1.20496263
H        -0.00594380       1.60721730       1.51451143
H         0.02575757       3.39725272       1.42519800
H        -0.46432972       4.00100130      -0.98950823
H        -0.44673264       2.56812314      -2.01787067
H        -2.08580795       2.88561841       0.55645379
H        -2.68812706       2.95143570      -1.11256190
H        -3.96980427       1.45404331       0.31614736
H        -3.39402956       0.11096732      -2.35511543
H        -4.41436254       1.47610679      -1.98968208
H        -5.03179963      -1.44732539      -1.85551716
H        -6.06589465      -0.10747349      -2.31599351
H        -6.84608841      -1.13606539      -0.19452772
H        -6.34943163       0.52758545       0.05923125
H        -5.28010581      -0.41985679       1.84145471
H        -5.12516543      -2.00083399       1.08219679
H        -2.97326884      -0.50527021       1.53180241
H        -1.30654391      -1.24350336      -1.13664324
H        -1.10583784      -1.27802696       0.62117316
H        -1.51414299      -3.84542667       0.48715116
H        -1.48511298      -3.66702727      -1.25623893
H         0.31881720      -2.60526790       1.61482958
H         0.91611905      -4.26486941       1.36631379
H         2.84197775      -2.83590498       1.79622414
H         2.86225673      -3.25391774       0.05301366
H         4.03839045      -0.89971839       1.47312767
H         3.79577472      -0.98556987      -1.59016281
H         4.63365590      -2.15145028      -0.59214129
