107
lig_027 free ligand  charge=0 uhf=0  ETKDGv3 + MMFF94s  smiles=CCCCCCC(CCCC)CCCN(C)C(=O)COCC(=O)N(C)CCCC(CCCC)CCCCCC
C       -10.09568320       4.05424227       1.57662086
C        -8.85988715       3.20855537       1.30899577
C        -8.70946940       2.09739286       2.34874242
C        -7.41812444       1.28887308       2.19356118
C        -7.35970424       0.47852274       0.89405455
C        -6.11125471      -0.40466219       0.85609637
C        -5.84681307      -1.16403165      -0.46558881
C        -6.87048154      -2.30290020      -0.71063439
C        -8.12512065      -1.94433896      -1.51496475
C        -9.10536323      -3.11888402      -1.55802335
C       -10.34654932      -2.77932102      -2.36801604
C        -5.65759329      -0.26218860      -1.70522378
C        -4.55544380       0.80338411      -1.61986822
C        -3.13836572       0.30368275      -1.92885038
N        -2.59781215      -0.63547091      -0.95489398
C        -2.31266886      -1.98063286      -1.43993868
C        -2.20223217      -0.15121654       0.28472474
O        -2.28865827       1.04314348       0.58853682
C        -1.65582075      -1.14887503       1.31982086
O        -0.33480763      -1.63331859       1.13761909
C         0.63942113      -0.59334670       1.12318064
C         1.06246211      -0.11550845      -0.28032496
O         0.64958350      -0.68619134      -1.29332219
N         1.93397304       0.97188791      -0.35673464
C         2.28293825       1.47498400      -1.67818939
C         2.59083770       1.60998725       0.78840198
C         4.10615953       1.37154056       0.84160097
C         4.46608706      -0.09707033       1.07419000
C         5.96946251      -0.45707468       0.99377092
C         6.82159408       0.22548551       2.09028255
C         7.40862117       1.60216855       1.75186088
C         8.03876548       2.29807588       2.96264824
C         9.24870450       1.56594162       3.52234999
C         6.51412589      -0.30740481      -0.44131350
C         7.86715523      -1.00250894      -0.64000708
C         8.36605589      -0.83552312      -2.07762755
C         9.66277133      -1.59812102      -2.36407386
C        10.86685961      -1.06290967      -1.58788568
C        12.14864572      -1.77431996      -1.99403002
H       -10.18775633       4.84036550       0.82064855
H       -11.00340010       3.44321931       1.54404865
H       -10.03843054       4.53346693       2.55916598
H        -8.94001286       2.78180507       0.30361997
H        -7.97370949       3.85343331       1.32114478
H        -9.57350856       1.42359860       2.29865702
H        -8.71480595       2.54242649       3.35160175
H        -6.55441201       1.96270123       2.24906122
H        -7.33956689       0.60359800       3.04679800
H        -8.25616941      -0.14559804       0.83156199
H        -7.36167226       1.15969651       0.03863865
H        -6.17675382      -1.13723962       1.67184110
H        -5.23359810       0.20745383       1.09460789
H        -4.89894341      -1.68535404      -0.29102046
H        -6.35052540      -3.10215782      -1.25697758
H        -7.15997667      -2.74236298       0.25223401
H        -7.84449713      -1.68264303      -2.54190465
H        -8.62783914      -1.07287433      -1.08790907
H        -9.40544565      -3.39083228      -0.53934683
H        -8.61707862      -3.99594719      -1.99851258
H       -10.08501998      -2.53313824      -3.40208944
H       -11.03298130      -3.63162151      -2.38490387
H       -10.87621222      -1.92499129      -1.93450127
H        -6.59769530       0.26511655      -1.90687835
H        -5.47083534      -0.89214609      -2.58437482
H        -4.78689583       1.56574250      -2.37599262
H        -4.58678876       1.32621188      -0.66016461
H        -3.11562531      -0.15423545      -2.92503578
H        -2.46426211       1.16872569      -1.96556919
H        -1.94209216      -2.64808710      -0.66313929
H        -3.22780101      -2.40641545      -1.86150409
H        -1.55790618      -1.91319369      -2.22895339
H        -2.33214759      -2.00959425       1.36427520
H        -1.72578025      -0.67937358       2.30972728
H         1.53531403      -1.00586417       1.59903137
H         0.29872812       0.25762440       1.72285440
H         3.27601318       1.10347073      -1.94624011
H         1.57140428       1.14760368      -2.44106898
H         2.29059797       2.56870042      -1.65918932
H         2.39548671       2.68627183       0.71165844
H         2.15015918       1.28247046       1.73192653
H         4.57266299       1.74098457      -0.07683951
H         4.49848110       1.97187698       1.66934114
H         3.93477381      -0.72310069       0.34665889
H         4.08695031      -0.39718198       2.05992579
H         5.99993537      -1.53235306       1.22660867
H         6.22897267       0.29388688       3.01132213
H         7.65561313      -0.44879099       2.32382297
H         8.16826361       1.50688727       0.96816945
H         6.63504497       2.26249590       1.35211361
H         8.35043953       3.30506120       2.66027959
H         7.28933761       2.42312293       3.75282618
H        10.00047948       1.39721385       2.74487509
H         8.96948232       0.59875423       3.95043653
H         9.71120306       2.15877811       4.31804791
H         5.79505338      -0.75103689      -1.14229640
H         6.59688531       0.74996515      -0.71643067
H         8.60401967      -0.59193937       0.05610074
H         7.76500914      -2.06985800      -0.40982979
H         8.50953557       0.22920997      -2.29850619
H         7.59579041      -1.20033369      -2.76848768
H         9.87000139      -1.52661640      -3.43914659
H         9.52081136      -2.66254823      -2.14076098
H        10.97981026       0.01213027      -1.76920460
H        10.71823317      -1.19894142      -0.51147792
H        12.99697665      -1.38040356      -1.42558462
H        12.35746957      -1.63000559      -3.05887609
H        12.07883618      -2.84933856      -1.79956446
