85
lig_112 free ligand  charge=0 uhf=0  ETKDGv3 + MMFF94s  smiles=CCCCCCN(CCCCCC)C(=O)CC(=O)N(CCCCCC)CCCCCC
C         5.15786727       2.61185655       4.89196472
C         4.03628935       1.95855267       4.10040520
C         4.51317985       0.68740275       3.39834766
C         3.38143313       0.03472185       2.60237196
C         3.85943338      -1.23835194       1.90124132
C         2.76405535      -1.91821679       1.07574030
N         2.28152899      -1.12048755      -0.05882694
C         3.20238509      -0.91915251      -1.18450159
C         3.81149511       0.48480218      -1.20327418
C         4.62614718       0.79530356      -2.46371540
C         5.87777000      -0.07081454      -2.64235525
C         5.65821547      -1.24929645      -3.59352871
C         6.92048526      -2.08502685      -3.74077736
C         0.99619732      -0.58301674      -0.17481696
O         0.63256057      -0.01192742      -1.20520958
C         0.04889491      -0.77275484       0.98780701
C        -1.14066191       0.15930699       0.95836032
O        -1.07071898       1.23773650       1.55723127
N        -2.29264983      -0.23093073       0.27989154
C        -2.43052022      -1.47000759      -0.49006102
C        -2.91210905      -2.66104997       0.34788333
C        -4.35524068      -2.52258329       0.83977225
C        -4.82245693      -3.79709481       1.54815001
C        -6.21815460      -3.67142406       2.16279416
C        -7.32117646      -3.48457857       1.13254384
C        -3.39167136       0.73404733       0.19895763
C        -3.20758718       1.69993275      -0.97450510
C        -4.35998177       2.70146026      -1.05471281
C        -4.17759013       3.66644405      -2.22724864
C        -5.32962057       4.66768323      -2.30753329
C        -5.15206160       5.62893465      -3.47198724
H         4.79495967       3.51876638       5.38564189
H         5.98926518       2.89113281       4.23689111
H         5.53982020       1.93501797       5.66289302
H         3.20829052       1.72131729       4.77851799
H         3.65547060       2.67218999       3.36050228
H         4.89668552      -0.02179729       4.14194482
H         5.34369448       0.92994634       2.72412848
H         2.99837268       0.75058386       1.86628388
H         2.55424100      -0.20993933       3.27917203
H         4.21001527      -1.95075863       2.65852682
H         4.72400037      -1.01367536       1.26697956
H         1.93906670      -2.20606838       1.73171756
H         3.15456868      -2.85610908       0.66199481
H         2.64828999      -1.09072493      -2.11514947
H         3.98700180      -1.68063606      -1.12944598
H         4.44422391       0.63156199      -0.32101312
H         3.01407107       1.23397531      -1.12515995
H         3.98344710       0.74127036      -3.35036636
H         4.95045223       1.84104601      -2.38373375
H         6.24455701      -0.42315152      -1.67103184
H         6.67134518       0.55900279      -3.06494094
H         4.84815571      -1.89225544      -3.23770898
H         5.36064615      -0.87590804      -4.58050115
H         7.74589700      -1.48390272      -4.13531180
H         6.74605047      -2.91646425      -4.43087821
H         7.22851991      -2.50250946      -2.77683995
H         0.57268709      -0.55523999       1.92431008
H        -0.26261976      -1.81776513       1.03008828
H        -1.46149914      -1.72446307      -0.92892685
H        -3.11172567      -1.29436553      -1.33080718
H        -2.25456564      -2.81044953       1.21135018
H        -2.83392914      -3.56328758      -0.27141968
H        -4.43010044      -1.67973507       1.53586239
H        -5.00782349      -2.30835835      -0.01364547
H        -4.11549216      -4.04112292       2.35084163
H        -4.80524123      -4.63896011       0.84528862
H        -6.23889363      -2.83777568       2.87432576
H        -6.42795742      -4.58231673       2.73614267
H        -8.29962843      -3.50018038       1.62340830
H        -7.22740069      -2.52629390       0.61343646
H        -7.30331527      -4.28619357       0.38749241
H        -3.44373787       1.30012853       1.13637530
H        -4.33776579       0.19225470       0.09978687
H        -2.25751226       2.23777415      -0.86800036
H        -3.14348712       1.13497355      -1.91249426
H        -4.41934188       3.26873840      -0.11789078
H        -5.30823168       2.16183682      -1.16702381
H        -3.22913411       4.20584274      -2.11516275
H        -4.11780600       3.09922953      -3.16414300
H        -5.39117821       5.24031903      -1.37479415
H        -6.27987775       4.13365488      -2.42384651
H        -5.11906467       5.08987402      -4.42417503
H        -5.98675876       6.33582906      -3.51059636
H        -4.22544425       6.20267083      -3.36930396
