63
lig_137 free ligand  charge=0 uhf=0  ETKDGv3 + MMFF94s  smiles=CCCCP(=S)(CCCC)COCP(=S)(CCCC)CCCC
C        -5.25959217      -2.30109809      -3.16321311
C        -3.76125669      -2.56050443      -3.13801703
C        -2.94937346      -1.39413164      -2.57261589
C        -3.22300610      -1.12380853      -1.09509988
P        -2.17897439       0.16672455      -0.35221592
S        -2.37527143       1.95255827      -1.12459572
C        -2.56898437       0.03613966       1.42005270
C        -4.00020294       0.40637217       1.79677244
C        -4.23081828       0.28203728       3.30204153
C        -5.65725030       0.64904393       3.67890406
C        -0.52144039      -0.56436891      -0.43099880
O         0.33497958       0.19860961       0.42246609
C         1.16690233       1.11849158      -0.28040158
P         2.83417891       0.40833764      -0.42754081
S         2.98799070      -1.24032704      -1.47006833
C         3.70056962       1.83865589      -1.17574296
C         5.17037394       1.60372378      -1.51633853
C         5.90604396       2.87757844      -1.93553962
C         5.37748958       3.48572092      -3.22540124
C         3.47187896       0.41187063       1.26978649
C         3.50833516      -0.90323815       2.04345712
C         2.12904280      -1.45702099       2.38750366
C         2.22907663      -2.67142507       3.29843454
H        -5.77478004      -3.12573945      -3.66629415
H        -5.67042761      -2.22257327      -2.15246366
H        -5.48974710      -1.37777182      -3.70407388
H        -3.55808679      -3.47083056      -2.56211273
H        -3.42416171      -2.75295492      -4.16359290
H        -3.14653046      -0.48909366      -3.15806685
H        -1.88598085      -1.62055316      -2.70577718
H        -3.08004406      -2.04625923      -0.52079083
H        -4.26592941      -0.81882162      -0.96330681
H        -2.36354016      -0.99351861       1.73544318
H        -1.87059586       0.68158736       1.96553768
H        -4.21331763       1.43158037       1.47472111
H        -4.70152454      -0.24374908       1.26279797
H        -3.53674516       0.93754686       3.84079942
H        -4.02604877      -0.74475232       3.62680113
H        -5.80033577       0.55323247       4.75975596
H        -5.88424542       1.68199167       3.39635616
H        -6.37628039      -0.00952891       3.18128479
H        -0.15095511      -0.61722740      -1.45888699
H        -0.56378881      -1.58117893      -0.02926953
H         0.76740457       1.38061204      -1.26528960
H         1.22325035       2.03458351       0.31536374
H         3.60829319       2.68042783      -0.47972475
H         3.14985313       2.10726400      -2.08414991
H         5.25001257       0.85698496      -2.31440277
H         5.68390601       1.17830313      -0.64773762
H         6.96717993       2.63729690      -2.07214914
H         5.85095449       3.62151650      -1.13230009
H         4.35294585       3.85025848      -3.10630511
H         5.99936323       4.33654915      -3.52180945
H         5.39308460       2.75468724      -4.03989310
H         2.92164817       1.16277762       1.84855974
H         4.50438436       0.77513640       1.22465716
H         4.07699488      -1.65110134       1.47980159
H         4.06140679      -0.73015543       2.97546495
H         1.52641424      -0.68701545       2.88218126
H         1.60527406      -1.75525087       1.47555489
H         1.23046666      -3.05864758       3.52391634
H         2.71477112      -2.41367229       4.24498055
H         2.80476578      -3.47188204       2.82279023
