68
lig_015 free ligand  charge=0 uhf=0  ETKDGv3 + MMFF94s  smiles=CC1(C)OC(C)(C)c2nc(-c3cccc(-c4cccc(-c5nnc6c(n5)C(C)(C)OC6(C)C)n4)n3)nnc21
C        -8.68513923       1.84468519       1.25265302
C        -8.05602265       0.86113120       0.27069637
C        -8.89029999       0.72563517      -0.99935808
O        -7.99504298      -0.44533369       0.91434805
C        -6.60973466      -0.89251210       1.00996914
C        -6.47906289      -2.19975863       0.23400071
C        -6.27345212      -1.08115998       2.48625514
C        -5.80033533       0.20783266       0.38957617
N        -4.46638041       0.24308671       0.25036787
C        -4.00236230       1.36736042      -0.35046588
C        -2.54153490       1.51588608      -0.55758107
C        -1.98994984       2.64337426      -1.16805689
C        -0.61169269       2.72604664      -1.33498109
C         0.19150083       1.68250585      -0.88990882
C        -0.39815260       0.57402185      -0.28536173
C         0.39826114      -0.57346610       0.21197246
C        -0.19137637      -1.68188554       0.81665101
C         0.61181754      -2.72543219       1.26170514
C         1.99005892      -2.64283875       1.09462096
C         2.54162775      -1.51542563       0.48398255
C         4.00243027      -1.36701837       0.27660944
N         4.81085153      -2.38340307       0.70817857
N         6.16277967      -2.30573453       0.54592664
C         6.63424307      -1.20364878      -0.04530480
C         5.80031846      -0.20790224      -0.46428046
N         4.46638926      -0.24303338      -0.32481118
C         6.60965484       0.89210780      -1.08534885
C         6.47927868       2.19970610      -0.30992050
C         6.27302880       1.08014900      -2.56163454
O         7.99495167       0.44485961      -0.98988341
C         8.05599413      -0.86127272      -0.34556411
C         8.89054174      -0.72517432       0.92424817
C         8.68484549      -1.84537959      -1.32713812
N         1.74731923      -0.49432071       0.04926121
N        -1.74722609       0.49479489      -0.12282644
N        -4.81074987       2.38391054      -0.78171321
N        -6.16270319       2.30610675      -0.61974471
C        -6.63422994       1.20373434      -0.02909758
H        -8.10962229       1.89578243       2.18463947
H        -9.69588424       1.52438105       1.52976701
H        -8.74332469       2.85508940       0.83386132
H        -8.95980304       1.67429078      -1.54241014
H        -9.90480498       0.38484684      -0.76347197
H        -8.46136910      -0.02278441      -1.67634034
H        -6.77231054      -2.06801756      -0.81433335
H        -5.45310809      -2.58283871       0.25386731
H        -7.14440166      -2.96574218       0.64818925
H        -6.41991545      -0.15030619       3.04697444
H        -6.93479093      -1.82586289       2.94342294
H        -5.23630500      -1.40340059       2.62841176
H        -2.62049234       3.45747231      -1.51493274
H        -0.16538036       3.59627573      -1.80809327
H         1.26996446       1.73528202      -1.01461677
H        -1.26983097      -1.73460744       0.94147881
H         0.16551875      -3.59561874       1.73490096
H         2.62059803      -3.45695318       1.44145205
H         5.45333103       2.58281690      -0.32963617
H         6.77284793       2.06841330       0.73838041
H         7.14451744       2.96547978      -0.72465638
H         6.41917157       0.14901111      -3.12197318
H         5.23589928       1.40251424      -2.70366292
H         6.93438572       1.82453114      -3.01930933
H         9.90502370      -0.38458687       0.68797199
H         8.46180696       0.02362866       1.60093585
H         8.96009188      -1.67355548       1.46777988
H         8.74298327      -2.85558756      -0.90786395
H         9.69558618      -1.52533003      -1.60457816
H         8.10917248      -1.89685859      -2.25900652
