119
lig_021 free ligand  charge=0 uhf=0  ETKDGv3 + MMFF94s  smiles=CCCCC(CC)CN(CC(CC)CCCC)C(=O)CCOCCC(=O)N(CC(CC)CCCC)CC(CC)CCCC
C        -8.63833755      -1.31069195      -6.77992869
C        -8.10536888      -0.43534585      -5.65682077
C        -7.04382719      -1.16576176      -4.83268524
C        -6.51507983      -0.27943659      -3.70072156
C        -5.34724571      -0.91071346      -2.90877540
C        -5.69562284      -2.27256656      -2.26961358
C        -6.89998681      -2.26786627      -1.33749851
C        -4.82019344       0.12283402      -1.88147854
N        -3.53736806      -0.25003899      -1.27287398
C        -3.55788251      -0.78273129       0.09555926
C        -3.23837929       0.25413047       1.20370645
C        -3.10010221      -0.49757454       2.55041560
C        -1.97366454       0.03884139       3.42423270
C        -4.31895053       1.35979302       1.24603689
C        -4.09133092       2.43695732       2.30873293
C        -5.10432270       3.57518271       2.17203082
C        -4.88270796       4.64548488       3.22903063
C        -2.38365948      -0.08639729      -2.04272120
O        -2.42766692       0.37448524      -3.18507230
C        -1.06718445      -0.52515605      -1.42941949
C         0.10088792      -0.34666332      -2.39411993
O         1.36418962      -0.46010454      -1.73207803
C         1.68311354      -1.78828253      -1.31587652
C         3.01993507      -1.76920963      -0.58482226
C         2.89609031      -1.24049897       0.83322391
O         1.79974237      -0.93049991       1.30376175
N         4.08185695      -1.11484756       1.57564330
C         5.23178501      -2.01722778       1.37953180
C         6.47043153      -1.58450072       0.54566161
C         6.94645487      -0.14065852       0.76862918
C         6.26309319       0.91315141      -0.09189181
C         6.38893017      -2.00365611      -0.93826253
C         7.75664983      -2.01124289      -1.63504371
C         7.63543287      -2.48575949      -3.08401998
C         8.98634982      -2.49666654      -3.78143975
C         3.97236095      -0.42440367       2.88075802
C         4.18548742       1.11095587       2.84895955
C         4.32966794       1.69345278       4.27271627
C         5.58615968       1.23650461       5.00428813
C         3.11909497       1.88749002       2.03818185
C         1.70396365       1.93508349       2.63277452
C         1.41271915       3.24993018       3.36240930
C        -0.00801913       3.28829525       3.90141851
H        -9.10064271      -2.22009276      -6.38293903
H        -9.39478073      -0.76893257      -7.35628782
H        -7.83527587      -1.60348747      -7.46380489
H        -8.93722268      -0.13467090      -5.00925076
H        -7.68043595       0.47957607      -6.08579264
H        -7.48137275      -2.08263294      -4.42302005
H        -6.21382009      -1.46303321      -5.48483457
H        -7.33587069      -0.01852000      -3.02162265
H        -6.16770157       0.66622302      -4.13756486
H        -4.54251556      -1.10811020      -3.62963232
H        -5.87666060      -3.00771424      -3.06299367
H        -4.82577438      -2.65239553      -1.72145720
H        -6.77779393      -1.55887853      -0.51480260
H        -7.82118948      -2.01956388      -1.87224029
H        -7.03377590      -3.26296748      -0.90043814
H        -4.66761262       1.08467522      -2.38783846
H        -5.56123217       0.30479238      -1.09664064
H        -2.83091432      -1.59929342       0.14458836
H        -4.53566455      -1.23953506       0.28353874
H        -2.28404956       0.73662821       0.96568423
H        -4.04489109      -0.47120140       3.10593170
H        -2.88144234      -1.55803038       2.37388433
H        -2.14064821       1.07650227       3.71746696
H        -1.01339638      -0.02064654       2.90175375
H        -1.89404165      -0.55601034       4.33987780
H        -4.34991330       1.85776425       0.26986741
H        -5.30543840       0.90472942       1.40154921
H        -3.07678705       2.84000910       2.21199476
H        -4.18526549       2.00187062       3.30940181
H        -6.12272272       3.18062506       2.26615238
H        -5.02270342       4.03036487       1.17813437
H        -3.88212132       5.08108922       3.14228930
H        -5.61513699       5.45041168       3.11284786
H        -4.99072935       4.23052504       4.23624479
H        -1.14545829      -1.58060497      -1.15303259
H        -0.87184025       0.04932820      -0.52044831
H         0.07802486       0.65730373      -2.83207184
H         0.04784047      -1.06043750      -3.22484977
H         1.77159960      -2.41435005      -2.21102119
H         0.89759866      -2.20319526      -0.67734668
H         3.41041766      -2.78905034      -0.55302961
H         3.70708566      -1.11373506      -1.12192045
H         5.60160183      -2.28047983       2.37935180
H         4.85360428      -2.97016990       0.99258511
H         7.27501088      -2.21246636       0.96084709
H         8.02310870      -0.08660518       0.56165077
H         6.85089657       0.11116707       1.82957533
H         5.17505821       0.83494244      -0.05204592
H         6.54601808       1.91446629       0.24879226
H         6.56910257       0.83062828      -1.13921733
H         5.72125271      -1.34230997      -1.49412597
H         5.96574582      -3.01355720      -1.00578125
H         8.19491138      -1.00735554      -1.62176093
H         8.44251478      -2.67161016      -1.09076485
H         6.95179459      -1.82911290      -3.63464790
H         7.20880517      -3.49516120      -3.11138132
H         9.42608797      -1.49436826      -3.80058071
H         9.68482092      -3.16902551      -3.27311941
H         8.87647995      -2.83915462      -4.81513601
H         2.99838967      -0.65500067       3.32709512
H         4.70738854      -0.87655528       3.55206451
H         5.13374423       1.30538089       2.34311829
H         3.45410419       1.43862955       4.88075246
H         4.37253967       2.78741428       4.20638519
H         5.54504427       0.17458274       5.26062026
H         6.48114374       1.41526383       4.40017557
H         5.69473292       1.79324927       5.94093924
H         3.05864491       1.45531387       1.03330665
H         3.48210478       2.91154744       1.87859541
H         0.98526477       1.84185969       1.80810851
H         1.52210990       1.08600138       3.29930654
H         2.10734084       3.39187809       4.19529915
H         1.55448700       4.09317721       2.67625215
H        -0.19607268       4.23994144       4.40827215
H        -0.17469022       2.48167390       4.62209239
H        -0.73631137       3.18641675       3.09125534
