114
lig_035 free ligand  charge=0 uhf=0  ETKDGv3+randomCoords + MMFF94s  smiles=CCCCCCCCCCCCN(CCCCCCCCCCCC)C(=O)COC1CCCN(CCCCCC)C1=O
C        -3.87725855       2.30470083       6.71975366
C        -3.03703765       3.10403073       7.70343484
C        -1.53003221       2.90694318       7.52294553
C        -0.96852138       3.30360048       6.15337317
C        -1.14504245       4.79069059       5.83229162
C        -0.44302027       5.21730324       4.53616831
C        -1.35123306       5.27310331       3.30192184
C        -1.96451088       3.94692199       2.84893227
C        -0.92036407       2.91742538       2.41060756
C        -1.53629672       1.63275158       1.84514258
C        -2.28139840       0.80394298       2.89223867
C        -2.88782325      -0.49290188       2.33504640
N        -1.92461648      -1.50401200       1.88649118
C        -2.08746012      -2.02966474       0.52251217
C        -1.75463070      -1.03665944      -0.59425450
C        -0.25002378      -0.84760259      -0.78987176
C         0.04666881       0.21613090      -1.84849432
C         1.55435447       0.39238426      -2.04344916
C         1.90908577       1.39643526      -3.14440585
C         1.51038526       2.83384636      -2.80008040
C         2.02791744       3.86312195      -3.81019193
C         1.53902192       3.68174313      -5.25108707
C         0.01928776       3.64684029      -5.43852953
C        -0.67911578       4.92658078      -4.97800744
C        -2.16970139       4.88289488      -5.27791991
C        -1.12244888      -2.11108102       2.85662302
O        -1.20515184      -1.81230958       4.05322082
C        -0.13861457      -3.20865022       2.42941751
O         0.84221378      -2.72143218       1.52457832
C         1.80271931      -3.70130228       1.15287279
C         2.99510939      -2.94456112       0.55470311
C         4.08402864      -3.85229077      -0.02206816
C         3.72232664      -5.33000589       0.04399020
N         2.35170702      -5.54723592      -0.38867202
C         2.06888181      -6.58416445      -1.37434639
C         2.30832920      -6.07938866      -2.79734683
C         2.00156449      -7.16299651      -3.83099887
C         2.24063161      -6.65706375      -5.25446280
C         1.93352565      -7.74006455      -6.28832989
C         2.16985273      -7.24093173      -7.70484319
C         1.32587482      -4.75534434       0.12197677
O         0.14791353      -4.89447165      -0.20014363
H        -3.74900927       2.66775019       5.69632695
H        -4.93869138       2.39619983       6.97165781
H        -3.61273036       1.24295932       6.74718276
H        -3.30378436       2.79283958       8.72082079
H        -3.29615375       4.16561612       7.62864729
H        -1.00820726       3.47737083       8.30136825
H        -1.28842171       1.85161712       7.70189277
H         0.10232086       3.06381277       6.14809224
H        -1.42395475       2.68219238       5.37881256
H        -2.20605309       5.05915495       5.79098543
H        -0.70801238       5.36651446       6.65824800
H         0.43841690       4.59625782       4.34260450
H        -0.06158042       6.23576797       4.68881705
H        -0.77536136       5.69757242       2.46973306
H        -2.16661189       5.98099746       3.49791294
H        -2.63106680       4.15366552       2.00200809
H        -2.59956890       3.54873952       3.64466344
H        -0.25763261       2.65976017       3.24347409
H        -0.28801893       3.36389038       1.63299531
H        -0.72006272       1.03397370       1.43191310
H        -2.20876982       1.88247453       1.01642643
H        -3.10744307       1.39606629       3.30205501
H        -1.60804313       0.59139346       3.72879779
H        -3.49634020      -0.95763170       3.12123564
H        -3.57153863      -0.25082841       1.51331195
H        -3.14102788      -2.32393666       0.43411825
H        -1.51498058      -2.94479819       0.37451411
H        -2.23868520      -0.07225021      -0.41313243
H        -2.17551197      -1.42310177      -1.53122631
H         0.19698757      -1.80118566      -1.09523356
H         0.22195201      -0.55607107       0.15348981
H        -0.41714788      -0.07045489      -2.79990789
H        -0.40635981       1.16385793      -1.53717767
H         1.99555437      -0.57655323      -2.30864611
H         2.01825784       0.70184841      -1.09894512
H         1.43408344       1.08373750      -4.08110348
H         2.99298400       1.35606689      -3.30831691
H         1.91743231       3.09157496      -1.81429445
H         0.42215288       2.91880584      -2.71609120
H         3.12499032       3.83541810      -3.81359975
H         1.75577399       4.86520436      -3.45787917
H         1.95147060       4.49744724      -5.85844568
H         1.96242950       2.75831956      -5.66392358
H        -0.18659295       3.49153352      -6.50521768
H        -0.40542420       2.78197513      -4.91608969
H        -0.23646177       5.79417984      -5.48066939
H        -0.54345566       5.06891647      -3.90062372
H        -2.35131962       4.77983668      -6.35249157
H        -2.65149691       5.80547234      -4.93929399
H        -2.64796092       4.04185270      -4.76574321
H         0.36340813      -3.56386745       3.33790056
H        -0.70177260      -4.04918363       2.01388627
H         2.13676616      -4.23736543       2.05110475
H         3.42690509      -2.28094906       1.31465583
H         2.63918634      -2.27067957      -0.23622083
H         5.03348266      -3.68219101       0.49836937
H         4.25219813      -3.56862808      -1.06890599
H         3.80621026      -5.69933236       1.07265203
H         4.41052956      -5.91327514      -0.57715061
H         1.02592133      -6.90483780      -1.27190610
H         2.69909321      -7.45271737      -1.15136100
H         3.34936086      -5.75082655      -2.90470545
H         1.68110153      -5.19893883      -2.98533965
H         0.95861266      -7.48591552      -3.72635804
H         2.63247111      -8.03996781      -3.64167312
H         1.61024728      -5.77953193      -5.44327545
H         3.28359033      -6.33409922      -5.35941163
H         2.56416728      -8.61811236      -6.10660527
H         0.89070936      -8.06356303      -6.19042342
H         1.94419394      -8.03112467      -8.42774251
H         3.21270912      -6.93934393      -7.84566817
H         1.52997791      -6.38172370      -7.92992058
