25
lig_174 free ligand  charge=0 uhf=0  ETKDGv3 + MMFF94s  smiles=c1cc(-n2cccn2)nc(-n2cccn2)c1
C         0.08242583       2.46904219       1.13229472
C         1.26225710       1.77848046       0.87070655
C         1.18203230       0.51500665       0.28953932
N         2.38751626      -0.20062918       0.01766764
C         2.47844828      -1.45503644      -0.55148278
C         3.81346548      -1.76692783      -0.63290896
C         4.46785460      -0.64952005      -0.09223243
N         3.62129827       0.30274628       0.30425488
N        -0.00249441      -0.07476814      -0.03428465
C        -1.14415180       0.61960652       0.23078504
N        -2.39373251       0.01436769      -0.10309337
C        -2.56802464      -1.22810837      -0.67895518
C        -3.91983513      -1.41918901      -0.82821253
C        -4.49776049      -0.24636771      -0.31865655
N        -3.59025291       0.62702968       0.12210764
C        -1.13990417       1.88649706       0.81003249
H         0.11539209       3.45655242       1.58516354
H         2.21906780       2.22876481       1.12034584
H         1.58855545      -1.99650889      -0.83971013
H         4.25050885      -2.67313136      -1.02708576
H         5.53156273      -0.48807120       0.03026046
H        -1.71690071      -1.84786589      -0.92323011
H        -4.41598470      -2.28343364      -1.24594581
H        -5.54751395       0.01011547      -0.24952804
H        -2.06382962       2.42134849       1.01216818
