95
lig_131 free ligand  charge=0 uhf=0  ETKDGv3 + MMFF94s  smiles=CCCCN(CCCC)C(=O)COCC(=O)NCCCCCNC(=O)COCC(=O)N(CCCC)CCCC
C       -10.39155427      -3.61592754       0.23232330
C        -8.93970341      -3.80495577      -0.17935339
C        -8.19834250      -2.48779875      -0.41611186
C        -8.73503968      -1.70214634      -1.61748436
N        -7.95431250      -0.48969097      -1.89003121
C        -8.54368845       0.80433509      -1.51476468
C        -8.89501050       0.94727216      -0.02865906
C        -7.67745111       1.08943557       0.88704199
C        -7.10940849       2.50100085       0.88515954
C        -6.76556023      -0.64931924      -2.60322716
O        -6.36219284      -1.76213894      -2.95711862
C        -5.95472710       0.59331042      -2.97885956
O        -5.33584057       1.17561129      -1.83882534
C        -4.50814583       2.28010818      -2.20326102
C        -3.70992620       2.81379655      -1.01172798
O        -3.12350672       3.89150012      -1.04381083
N        -3.68955823       1.95802249       0.06589245
C        -2.97582754       2.24313520       1.28856197
C        -1.50052372       1.84923102       1.20992098
C        -1.30721546       0.33343235       1.09888297
C         0.15793823      -0.08302605       0.94433374
C         1.01777401       0.25199880       2.16112790
N         2.35504486      -0.27517147       2.01970606
C         2.70836852      -1.55027795       2.39732881
O         1.93222344      -2.36013462       2.89650624
C         4.17974697      -1.88236324       2.13765774
O         4.86778359      -0.78994240       1.53444318
C         6.23571657      -1.09113627       1.28485206
C         6.98712188       0.09172917       0.65097634
O         6.43114599       1.18074615       0.48480824
N         8.32168235      -0.11152636       0.28519884
C         9.07064582      -1.35780983       0.48283500
C         9.38945558      -2.09979510      -0.82097980
C         8.14443467      -2.60946750      -1.54725639
C         8.51099045      -3.35091071      -2.82378085
C         9.05386355       1.03697948      -0.26073984
C         9.66378569       1.89567302       0.85110262
C        10.52412469       3.04515304       0.32365916
C         9.73252413       4.09063561      -0.44657730
H       -10.46977373      -2.96857022       1.11148812
H       -10.83956668      -4.58293635       0.48272187
H       -10.98409519      -3.17648215      -0.57526277
H        -8.42221760      -4.35659542       0.61462002
H        -8.89274859      -4.42791423      -1.08005463
H        -7.13703622      -2.71618969      -0.57206313
H        -8.24385294      -1.87603601       0.49126812
H        -8.70508665      -2.34013341      -2.50945871
H        -9.78266744      -1.41844295      -1.47292380
H        -7.90788852       1.63578092      -1.82094281
H        -9.46484215       0.89517120      -2.10380008
H        -9.54167623       1.82503564       0.09525028
H        -9.49051360       0.09003231       0.30239535
H        -6.89684874       0.37184278       0.61253225
H        -7.98247013       0.84923297       1.91265083
H        -6.77911407       2.80338697      -0.11151867
H        -7.85837521       3.22269343       1.22719614
H        -6.25246529       2.56330508       1.56278518
H        -5.18210584       0.27661855      -3.69041259
H        -6.59986317       1.31697561      -3.48832485
H        -5.13665573       3.09203026      -2.58417442
H        -3.78572248       1.97418172      -2.96815206
H        -4.23362139       1.10334209      -0.02321592
H        -3.05715942       3.31569345       1.49699717
H        -3.47943882       1.70311349       2.09711068
H        -1.02563273       2.34445650       0.35450048
H        -1.00398935       2.21714235       2.11463128
H        -1.73662391      -0.15850844       1.98016969
H        -1.85748949      -0.04334370       0.22829426
H         0.58552674       0.38672399       0.04966552
H         0.18884414      -1.16533659       0.76503721
H         0.56896308      -0.15838288       3.07230541
H         1.11873291       1.33439414       2.28416294
H         3.09325343       0.29402938       1.60729997
H         4.21391016      -2.75282897       1.47364564
H         4.64280530      -2.12531606       3.10007321
H         6.28853226      -1.94604652       0.60523863
H         6.72448652      -1.33219731       2.23517168
H         8.53536933      -2.03092825       1.15656529
H        10.00783286      -1.09870670       0.98902323
H         9.96609978      -1.45657071      -1.49486083
H        10.03483208      -2.95351256      -0.57893654
H         7.58385298      -3.28599704      -0.89255412
H         7.48347100      -1.77355932      -1.80137754
H         7.60729281      -3.71053576      -3.32571636
H         9.14604757      -4.21576730      -2.60687690
H         9.04713359      -2.69567447      -3.51772359
H         9.83623189       0.67794313      -0.93642132
H         8.36449771       1.63779679      -0.86364690
H         8.87028633       2.29404824       1.49520814
H        10.29044726       1.26466982       1.49337766
H        11.32460778       2.65083557      -0.31301344
H        11.00969902       3.53480716       1.17625070
H         8.90392493       4.47807708       0.15456089
H         9.32515854       3.68165126      -1.37571398
H        10.38086569       4.93193365      -0.71192473
