39
lig_154 free ligand  charge=0 uhf=0  ETKDGv3 + MMFF94s  smiles=CN(C(=O)CC(=O)N(C)c1ccccc1)c1ccccc1
C         2.70251724      -1.20852335      -1.92872124
N         2.37637113      -0.52991588      -0.67005978
C         1.04003227      -0.37069309      -0.24182544
O         0.70426472       0.15773231       0.81904588
C        -0.03477702      -0.88794151      -1.17859906
C        -1.40776387      -1.00476732      -0.54494922
O        -1.76214379      -2.13480646      -0.19180431
N        -2.21662935       0.14470259      -0.48893881
C        -1.75989188       1.43914266      -1.00283806
C        -3.55559680       0.10896346       0.05988809
C        -3.95834814      -0.86083188       0.98923348
C        -5.25522935      -0.87515974       1.51863920
C        -6.18092878       0.08635422       1.13202879
C        -5.80749858       1.06478310       0.21914270
C        -4.50960943       1.07681056      -0.30694280
C         3.49515548      -0.10005807       0.14158826
C         4.76421451      -0.68878565      -0.01464771
C         5.86317156      -0.27976100       0.75098618
C         5.72001009       0.73329635       1.69056296
C         4.47912711       1.33458551       1.86176318
C         3.38163618       0.92229529       1.09472793
H         2.86099736      -2.27211168      -1.72597579
H         3.59215250      -0.76581803      -2.38847064
H         1.90339478      -1.10800609      -2.66555674
H         0.23465462      -1.90380204      -1.49428748
H        -0.08249681      -0.27333789      -2.08216293
H        -2.15609697       1.57597125      -2.01390004
H        -0.67357607       1.51333097      -1.05183248
H        -2.09378313       2.24931612      -0.34600118
H        -3.26792189      -1.61248414       1.36064659
H        -5.53084067      -1.63990306       2.24038541
H        -7.18636763       0.07352149       1.54323795
H        -6.52507681       1.81983638      -0.09103430
H        -4.28137873       1.85000974      -1.03398649
H         4.92829695      -1.50680293      -0.70973833
H         6.82771007      -0.76250268       0.61610403
H         6.56915062       1.05144128       2.28905032
H         4.35491792       2.13051935       2.59186873
H         2.44818056       1.45339988       1.25337314
