43
lig_102 free ligand  charge=0 uhf=0  ETKDGv3 + MMFF94s  smiles=CCCCCCCCNC(=O)c1cc(OC)ccn1
C        -5.55058070       0.74142470       2.65325948
C        -5.00849325       0.49711609       1.25317468
C        -5.03184682      -0.98982917       0.89824700
C        -4.60451921      -1.27969455      -0.54394311
C        -3.19001415      -0.82828368      -0.92327481
C        -2.09843785      -1.47339264      -0.06603649
C        -0.68298542      -1.18573246      -0.57410880
C        -0.29982200       0.29034652      -0.49149610
N         1.07154753       0.49993938      -0.89410468
C         2.13767804       0.38814721      -0.02771585
O         2.03383014       0.10721089       1.16073761
C         3.47377166       0.63819437      -0.66123624
C         4.62522222       0.55555990       0.11190335
C         5.84307472       0.79317932      -0.51205315
O         7.07342033       0.75679299       0.08390480
C         7.10618513       0.44603532       1.47286921
C         5.86164360       1.10097723      -1.87111939
C         4.66228835       1.16083324      -2.56085412
N         3.46089137       0.93689949      -1.99208626
H        -4.95368080       0.21171650       3.40258820
H        -5.52227753       1.80978505       2.88938282
H        -6.58812039       0.40268437       2.73740619
H        -5.60918057       1.06231821       0.53135506
H        -3.98544698       0.88492663       1.20244199
H        -6.05101178      -1.37407336       1.03249795
H        -4.39969584      -1.54928969       1.59740837
H        -4.69110881      -2.35922824      -0.71997632
H        -5.31571422      -0.79949088      -1.22768097
H        -3.02157225      -1.09042474      -1.97532133
H        -3.12570022       0.26323185      -0.86344876
H        -2.18112320      -1.13200970       0.97209019
H        -2.24501480      -2.56043545      -0.05665193
H         0.02314566      -1.77778147       0.02189883
H        -0.57963724      -1.53782659      -1.60814441
H        -0.91853575       0.89499108      -1.16115523
H        -0.43116240       0.66368603       0.53004447
H         1.29892228       0.73062669      -1.85845668
H         4.54045925       0.31162345       1.16359069
H         8.15250164       0.45713089       1.79292178
H         6.57002196       1.20035429       2.05816107
H         6.70994464      -0.55715401       1.66165383
H         6.79989290       1.29086117      -2.38199639
H         4.64124076       1.39805377      -3.62098274
