91
lig_073 free ligand  charge=0 uhf=0  ETKDGv3 + MMFF94s  smiles=CCCCCCCCN(CCCCCCCC)C(=O)CNCP(=O)(OCCCC)OCCCC
C        -4.33238918       5.52752861      -4.32870414
C        -4.11425494       4.50878593      -3.22038619
C        -4.50561310       5.07758830      -1.85575152
C        -4.41132315       4.05239127      -0.72100211
C        -2.98014115       3.58234927      -0.44935594
C        -2.84785027       2.73206522       0.81864267
C        -3.66899301       1.43844920       0.84087076
C        -3.28235714       0.40006789      -0.22088706
N        -1.91450972      -0.11050579      -0.06741215
C        -1.64770966      -1.04379201       1.03584942
C        -1.82975283      -2.52436282       0.67255938
C        -3.26917235      -3.03611883       0.55560621
C        -4.17707474      -2.79642318       1.76676426
C        -3.65992895      -3.44580262       3.05280429
C        -4.56678654      -3.20082933       4.26336584
C        -5.92874787      -3.88752951       4.15472750
C        -6.74018414      -3.71314838       5.42966085
C        -0.95874720       0.28347734      -1.00766524
O        -1.26013449       0.91981508      -2.02239806
C         0.52264518      -0.04864217      -0.75575694
N         0.80604307      -1.44277090      -1.12066846
C         2.18376728      -1.85390117      -0.79322999
P         3.34730196      -1.11623930      -1.95829097
O         2.90863128      -1.17914562      -3.39155683
O         4.74562252      -1.87576130      -1.67654795
C         5.78931753      -1.64722729      -2.61258193
C         7.10393815      -2.08949737      -1.98462741
C         8.28151262      -1.87134547      -2.92995883
C         9.59213034      -2.31120786      -2.29757671
O         3.64281843       0.38337858      -1.43699601
C         4.15061918       0.59797688      -0.13076595
C         5.24414368       1.65523775      -0.20585734
C         5.83834811       1.95013744       1.16816089
C         6.93223785       3.00271297       1.08731163
H        -5.38465773       5.82323977      -4.38881355
H        -4.04349001       5.10332102      -5.29542248
H        -3.73139319       6.42654876      -4.15865151
H        -3.06019712       4.21144995      -3.22138670
H        -4.70705148       3.61211443      -3.43476971
H        -5.53971170       5.44130424      -1.90222574
H        -3.87693930       5.94527160      -1.62138805
H        -5.05127254       3.19577581      -0.96105788
H        -4.81815893       4.51024113       0.18895265
H        -2.33063433       4.45944626      -0.33681940
H        -2.60019336       3.02522532      -1.30947097
H        -3.15038948       3.34278014       1.67889063
H        -1.78863375       2.49505471       0.97471374
H        -4.73288315       1.67579742       0.72697211
H        -3.57321173       0.99616875       1.83922630
H        -3.42839889       0.82728700      -1.21788756
H        -3.97218258      -0.44406564      -0.15628672
H        -0.61512666      -0.91155783       1.36765047
H        -2.26054847      -0.76982165       1.89835349
H        -1.31240370      -3.12462471       1.43102478
H        -1.32657136      -2.74194460      -0.27511964
H        -3.73854726      -2.59964961      -0.33275525
H        -3.22815174      -4.11606799       0.36196573
H        -5.16345281      -3.20590632       1.52071438
H        -4.32249735      -1.72274928       1.92622248
H        -3.53314667      -4.52422058       2.89959358
H        -2.67089956      -3.04083086       3.29513968
H        -4.04998535      -3.57396200       5.15649525
H        -4.70498624      -2.12225192       4.40727139
H        -6.50039675      -3.47232584       3.31819343
H        -5.79268651      -4.95737115       3.95921689
H        -7.71166781      -4.20757195       5.33102144
H        -6.22188094      -4.15191985       6.28825089
H        -6.91769319      -2.65351111       5.63947901
H         1.10829271       0.63732118      -1.37696518
H         0.77617385       0.16694086       0.28615474
H         0.66632604      -1.53599103      -2.13540119
H         2.23889164      -2.94041802      -0.91664271
H         2.43342304      -1.63681302       0.24955450
H         5.57931712      -2.22325494      -3.51962231
H         5.82952504      -0.58359261      -2.87134212
H         7.26128531      -1.53844166      -1.04873188
H         7.03404549      -3.14722002      -1.70141635
H         8.35078856      -0.81116698      -3.20004015
H         8.12323628      -2.43303683      -3.85790593
H         9.56769878      -3.37592482      -2.04434676
H         9.79602363      -1.74482852      -1.38323407
H        10.42214330      -2.14605847      -2.99162964
H         3.32689569       0.94043298       0.50339748
H         4.54696860      -0.32865539       0.29639107
H         4.83426299       2.57196443      -0.64797572
H         6.02929438       1.31589595      -0.89316746
H         5.05174412       2.29965915       1.84692016
H         6.25445155       1.03191985       1.59881625
H         7.75022809       2.66939792       0.44063303
H         7.34406807       3.19863692       2.08225275
H         6.54155060       3.94484883       0.68971283
