55
lig_002 free ligand  charge=0 uhf=0  ETKDGv3 + MMFF94s  smiles=CC(C)(C)Cc1cc(-c2cccc(-c3cc(CC(C)(C)C)[nH]n3)n2)n[nH]1
C        -4.99989260      -1.77924584       0.63474962
C        -5.92416416      -1.02501446      -0.33754986
C        -6.83824403      -2.05594440      -1.03139974
C        -6.81261331      -0.05191718       0.45738571
C        -5.11506198      -0.28926576      -1.43853699
C        -4.17160828       0.75338803      -0.94269659
C        -2.85057461       0.69221034      -0.55998138
C        -2.48323358       2.01788757      -0.19684670
C        -1.17071199       2.46121549       0.29036221
C        -0.94064640       3.78853842       0.63683304
C         0.32053977       4.15147466       1.09588412
C         1.31422461       3.18133672       1.19443895
C         1.01633969       1.87010742       0.82851120
C         2.03594179       0.80811847       0.90813122
C         3.45259987       0.95977188       0.96870040
C         3.97383901      -0.31458454       1.01900054
C         5.37421826      -0.82074022       1.10296905
C         6.07241269      -1.06233957      -0.26168721
C         6.18539213       0.23790631      -1.07717480
C         7.49806544      -1.57928283       0.02135877
C         5.33269796      -2.12288746      -1.09609487
N         2.88770636      -1.14188635       1.00726614
N         1.71754320      -0.49932698       0.93646259
N        -0.21131008       1.50657997       0.37924292
N        -3.52754111       2.85310541      -0.36229207
N        -4.51638304       2.06876621      -0.81722690
H        -4.38874882      -1.09308461       1.23010508
H        -5.58099120      -2.38572041       1.33913471
H        -4.32469125      -2.45320250       0.09580772
H        -6.25119730      -2.78484573      -1.60157501
H        -7.43822652      -2.61128028      -0.30148911
H        -7.53036921      -1.56685196      -1.72621362
H        -6.21726463       0.65086010       1.04955322
H        -7.46098072      -0.59287009       1.15638955
H        -7.45765815       0.52975650      -0.21055095
H        -5.80901836       0.17413722      -2.15339163
H        -4.53924750      -1.02413937      -2.01780888
H        -2.21423969      -0.18287080      -0.53103385
H        -1.73133128       4.52774799       0.55385682
H         0.52416663       5.18047122       1.37756725
H         2.29501110       3.45814038       1.56371971
H         4.02057903       1.87899515       0.95991251
H         5.96279253      -0.10176230       1.68931294
H         5.37832283      -1.75251829       1.68530710
H         6.67332016       1.02808716      -0.49570247
H         6.77747144       0.08167757      -1.98639269
H         5.20401184       0.60690738      -1.39258808
H         8.04508177      -1.76894901      -0.90920293
H         7.47380312      -2.51655968       0.58875708
H         8.07489189      -0.85107755       0.60274220
H         4.34311651      -1.77525883      -1.41052866
H         5.89200056      -2.36737224      -2.00660562
H         5.20112446      -3.05096051      -0.52870345
H         2.87142830      -2.15577762       1.03802715
H        -5.41269316       2.49889680      -1.01821548
