116
lig_076 free ligand  charge=0 uhf=0  ETKDGv3 + MMFF94s  smiles=CCCCCCCCN(CCCCCCCC)C(=O)COC(C)C(=O)N(CCCCCCCC)CCCCCCCC
C         7.71192697       3.26498158      -3.07872244
C         6.70275809       3.68884168      -2.02351166
C         5.29709963       3.18950468      -2.36008471
C         4.28846998       3.61463502      -1.29107525
C         2.84546218       3.22391917      -1.62487839
C         2.58658979       1.72421648      -1.80085295
C         2.99622805       0.84074986      -0.61944143
C         2.28171888       1.20225310       0.68224093
N         2.53442924       0.23649195       1.76063338
C         3.79893144       0.35554457       2.48912461
C         4.67838105      -0.90411326       2.49813561
C         5.15390838      -1.32963887       1.10837283
C         6.02458452      -2.59057487       1.12162255
C         7.38201954      -2.38779948       1.80036017
C         8.25171327      -3.64233013       1.67956906
C         9.65934725      -3.46183851       2.25200554
C         9.68027646      -3.24344687       3.75697697
C         1.57771255      -0.66533126       2.22601008
O         1.73571157      -1.31022585       3.26777684
C         0.27017212      -0.82257577       1.43636577
O         0.48993460      -1.14408668       0.06869130
C        -0.72121550      -1.36380067      -0.65371050
C        -0.30853274      -1.84973309      -2.04044807
C        -1.60924070      -0.10295734      -0.82720490
O        -1.09986909       1.02247944      -0.81250236
N        -2.98708954      -0.27173531      -0.98139090
C        -3.80584700       0.93740909      -1.11654919
C        -4.09987750       1.60790441       0.22804795
C        -4.90533884       2.89543336       0.03924537
C        -5.19907176       3.56663896       1.38274648
C        -6.09613270       4.80271272       1.26150903
C        -5.44125800       5.95241478       0.49123575
C        -6.24293825       7.25506461       0.55623820
C        -7.59961353       7.16644846      -0.12545502
C        -3.68405457      -1.56274060      -0.94951936
C        -4.12881068      -1.95235248       0.46160210
C        -4.57126444      -3.41404092       0.57341226
C        -5.81174241      -3.73622868      -0.26398014
C        -6.26608705      -5.18116871      -0.04365004
C        -7.56780716      -5.52869921      -0.77259452
C        -7.53560806      -5.38713623      -2.29630786
C        -6.48555183      -6.25914616      -2.96641892
H         8.70937759       3.63289678      -2.81866985
H         7.76214597       2.17430276      -3.15783568
H         7.44593788       3.66916578      -4.06065974
H         7.01424997       3.29455925      -1.04917606
H         6.70156479       4.78230991      -1.94619366
H         4.98929764       3.58690518      -3.33476253
H         5.31720475       2.09731017      -2.44587471
H         4.57718898       3.19591629      -0.32021072
H         4.32603224       4.70548497      -1.17769359
H         2.54516969       3.73478006      -2.54851526
H         2.18800482       3.61492363      -0.83908154
H         1.51670975       1.58028807      -1.99706158
H         3.10452018       1.36845080      -2.69941719
H         4.08040535       0.89304809      -0.47727823
H         2.77622331      -0.20040944      -0.88273706
H         2.60906479       2.18412804       1.04351949
H         1.20974455       1.29754210       0.50281861
H         3.55003051       0.61612146       3.52526068
H         4.37438914       1.19352730       2.07844164
H         5.54619832      -0.68869755       3.13177548
H         4.15190282      -1.74049649       2.96953322
H         4.28202299      -1.53878981       0.47901005
H         5.70669749      -0.50927734       0.63608840
H         6.18848676      -2.90021058       0.08183949
H         5.48243409      -3.40801441       1.61239244
H         7.89911152      -1.53704669       1.34088971
H         7.23185258      -2.14842689       2.85756574
H         7.75699983      -4.48483990       2.17809502
H         8.34614904      -3.91311137       0.62061507
H        10.24448019      -4.36056509       2.02304111
H        10.15994205      -2.62300036       1.75461199
H         9.15631318      -4.05040018       4.27880283
H        10.71342380      -3.22122595       4.11848694
H         9.21402707      -2.29274513       4.03133974
H        -0.30894089       0.10013911       1.54535440
H        -0.29776672      -1.63562234       1.90489233
H        -1.27110480      -2.15787495      -0.14167331
H        -1.17002812      -2.04629158      -2.68487154
H         0.32221120      -1.10452048      -2.53946261
H         0.28751974      -2.76547574      -1.96290176
H        -4.73859761       0.68333977      -1.63261452
H        -3.27098034       1.64348786      -1.76375509
H        -3.16197834       1.83561955       0.74857134
H        -4.65642544       0.92246801       0.87527550
H        -4.34186718       3.57842087      -0.60618969
H        -5.84825916       2.66647477      -0.47171599
H        -4.25747364       3.84208583       1.87319809
H        -5.69862200       2.84577610       2.04195733
H        -7.03906228       4.51565073       0.78229558
H        -6.34477859       5.14460714       2.27374602
H        -5.29997291       5.67174749      -0.55865241
H        -4.44430573       6.14258743       0.90730077
H        -6.37871122       7.55834508       1.60086568
H        -5.65959142       8.04630544       0.07030978
H        -8.26528980       6.47165532       0.39489990
H        -8.08310480       8.14866460      -0.12839938
H        -7.49694102       6.83642922      -1.16400752
H        -3.02953513      -2.33722148      -1.35668852
H        -4.54369051      -1.50543954      -1.62627779
H        -3.30583746      -1.78668610       1.16764371
H        -4.94921828      -1.30251496       0.78522146
H        -4.78318576      -3.62761297       1.62839844
H        -3.74419731      -4.07137247       0.27841068
H        -5.58683496      -3.58064366      -1.32391985
H        -6.62422527      -3.05035115       0.00382359
H        -6.42557798      -5.34704559       1.02932903
H        -5.47003265      -5.87146757      -0.34567729
H        -8.37346594      -4.89428312      -0.38245924
H        -7.83989508      -6.56102148      -0.51911841
H        -7.37796146      -4.34078183      -2.57961043
H        -8.52137974      -5.66637895      -2.68790004
H        -6.58069969      -6.19186116      -4.05496397
H        -6.60530603      -7.30880574      -2.68028035
H        -5.47261347      -5.94087789      -2.70293834
