119
lig_060 free ligand  charge=0 uhf=0  ETKDGv3 + MMFF94s  smiles=CCCCCCCCN(CCC(C)CC(C)(C)C)C(=O)COCC(=O)N(CCCCCCCC)CCC(C)CC(C)(C)C
C         6.17192292       7.07930805      -2.02305226
C         7.16404126       6.27194099      -1.20025338
C         6.55080243       5.02580070      -0.55592323
C         6.08296344       3.98713162      -1.57887411
C         5.67770120       2.65048298      -0.94690290
C         4.42954933       2.75062101      -0.06606706
C         4.02500220       1.41410594       0.56336951
C         3.56001061       0.37585500      -0.46105432
N         3.02993106      -0.82547953       0.19105772
C         3.99796874      -1.85519467       0.58318713
C         4.23473832      -2.85887190      -0.55102114
C         5.09873777      -4.07956139      -0.14500198
C         5.06108452      -5.09189912      -1.29184227
C         6.53361349      -3.64089187       0.24133998
C         7.55972184      -4.70219041       0.74026510
C         6.93086140      -5.68515305       1.73867140
C         8.69785389      -3.94470506       1.46483916
C         8.20624235      -5.47705722      -0.42129507
C         1.67939141      -1.05626711       0.46352478
O         1.29812025      -2.09837130       0.99976419
C         0.67620915       0.04366511       0.05144222
O        -0.67382737      -0.10351041       0.46627796
C        -1.38160798      -1.08317161      -0.27606543
C        -2.88399638      -1.21122154       0.03746384
O        -3.36680000      -2.33893777       0.19658411
N        -3.69133893      -0.07183572       0.05696429
C        -5.10427120      -0.26219407       0.39681116
C        -5.33487771      -0.21476974       1.90991815
C        -6.81171262      -0.42136257       2.24929389
C        -7.11822926      -0.28103706       3.74332808
C        -6.39566817      -1.26849958       4.66534273
C        -6.61307236      -2.75153000       4.34838491
C        -8.07035602      -3.21923250       4.34447962
C        -8.76929699      -3.03756489       5.68278713
C        -3.21238526       1.30983392      -0.01642615
C        -2.72575497       1.78395702      -1.39332599
C        -3.76370868       1.89966222      -2.53916201
C        -4.22647130       0.52586414      -3.01845251
C        -4.91063077       2.86750047      -2.16391699
C        -5.91264626       3.32738183      -3.26440693
C        -6.66379783       4.56500229      -2.72143223
C        -5.19918012       3.73128208      -4.56297174
C        -6.96957412       2.25158423      -3.56868497
H         5.29704931       7.35391598      -1.42536673
H         6.64215699       8.00170912      -2.37882634
H         5.83125580       6.52192617      -2.90049771
H         8.01397199       5.98646755      -1.83095696
H         7.56165692       6.91394301      -0.40513205
H         5.71498116       5.32990249       0.08411517
H         7.30511862       4.57221394       0.09860909
H         5.23989749       4.38010509      -2.15854163
H         6.89582739       3.79464342      -2.29000774
H         6.51458987       2.25145759      -0.36119748
H         5.49529060       1.94148472      -1.76225583
H         4.61203022       3.45888696       0.74983397
H         3.59239195       3.14961385      -0.65140140
H         4.86233334       1.01563268       1.14881505
H         3.21656894       1.60339406       1.28029106
H         4.38627824       0.06835256      -1.11051065
H         2.79692682       0.81368012      -1.10966273
H         3.62723725      -2.38310761       1.46912288
H         4.92647430      -1.35399265       0.87243424
H         3.25788100      -3.21700062      -0.90240660
H         4.69488958      -2.34746820      -1.40620557
H         4.62067045      -4.54186344       0.72753341
H         5.67593750      -4.76259812      -2.13574952
H         4.03846963      -5.23583315      -1.65830760
H         5.40547844      -6.07531998      -0.96459392
H         6.97478660      -3.09047294      -0.60115230
H         6.43240825      -2.90476703       1.04858770
H         6.17566865      -6.32022769       1.26579735
H         6.45227923      -5.15207531       2.56777948
H         7.68900044      -6.35120717       2.16666031
H         8.31955287      -3.39516804       2.33442339
H         9.47081760      -4.63394536       1.82388706
H         9.17960388      -3.22268294       0.79563270
H         9.04397540      -6.08855949      -0.06505080
H         7.51210902      -6.16140954      -0.91119554
H         8.59978828      -4.79391715      -1.18218250
H         1.02162905       0.98173644       0.49719396
H         0.70836506       0.16260845      -1.03759890
H        -0.94042321      -2.06659369      -0.08096819
H        -1.29174420      -0.89245480      -1.35111501
H        -5.44780693      -1.22646972       0.00426489
H        -5.69631279       0.50852807      -0.10692460
H        -4.72410137      -0.98617447       2.39225257
H        -4.99639696       0.74985096       2.30691818
H        -7.14276560      -1.40115085       1.88681661
H        -7.40960914       0.32402367       1.70969371
H        -6.86106399       0.73706619       4.06220165
H        -8.20106521      -0.37517615       3.88743852
H        -6.70719918      -1.06906052       5.69780507
H        -5.31848934      -1.06391872       4.64241251
H        -6.05412468      -3.34456746       5.08342843
H        -6.16766224      -2.98548847       3.37424197
H        -8.08856053      -4.28474696       4.08504121
H        -8.63697145      -2.70185920       3.56285000
H        -8.21325892      -3.53022966       6.48662065
H        -8.88119242      -1.97944109       5.93668054
H        -9.77131796      -3.47697298       5.64570809
H        -2.40325192       1.42366010       0.71028567
H        -4.00304508       1.97894822       0.34151663
H        -2.28811383       2.78143758      -1.24786840
H        -1.89732276       1.16063789      -1.74140536
H        -3.20681286       2.34877273      -3.37209370
H        -3.40554942      -0.19888740      -3.00213938
H        -4.56860148       0.57533998      -4.05608351
H        -5.04523553       0.13118807      -2.41250734
H        -5.48858572       2.44468373      -1.33388909
H        -4.43324851       3.77047479      -1.75652014
H        -7.19270184       4.32885350      -1.79099247
H        -5.97261247       5.38989101      -2.51405875
H        -7.40435731       4.93057935      -3.44205396
H        -4.41946899       4.47625843      -4.36928250
H        -4.73226628       2.87164000      -5.05415118
H        -5.90363930       4.16748952      -5.28065185
H        -7.76493893       2.65373494      -4.20756168
H        -6.55247702       1.39290832      -4.09774898
H        -7.44031610       1.88669784      -2.64904153
