113
lig_023 free ligand  charge=0 uhf=0  ETKDGv3 + MMFF94s  smiles=CCCCC(CC)CN(CC(CC)CCCC)C(=O)COCC(=O)N(CC(CC)CCCC)CC(CC)CCCC
C         4.19803928      -3.37865006      -5.98311196
C         5.15735240      -2.87181525      -4.91791937
C         4.56167175      -1.69585584      -4.14125475
C         5.53456940      -1.19483971      -3.06848006
C         5.02259696      -0.00491100      -2.22319974
C         4.70769917       1.25791712      -3.05283327
C         5.86965782       1.73955976      -3.91097309
C         3.80544756      -0.43695261      -1.36908392
N         3.49818715       0.50431787      -0.28209140
C         4.30468601       0.40634330       0.94058492
C         3.56969045      -0.29376880       2.11776995
C         4.41314576      -0.23284958       3.41099699
C         4.71199888       1.18041738       3.89487580
C         3.21405403      -1.75730503       1.75808665
C         2.40407008      -2.54192480       2.79936298
C         1.05062529      -1.90408310       3.11461959
C         0.20803203      -2.79384721       4.01468345
C         2.47676722       1.43468336      -0.48469114
O         1.75143058       1.38443548      -1.48217640
C         2.27311218       2.54852364       0.57020741
O         0.95696487       3.07502843       0.67709480
C         0.03431003       2.11544256       1.17943177
C        -1.41924799       2.61980971       1.26738039
O        -1.66395968       3.82828719       1.26157555
N        -2.43996234       1.65586455       1.37820767
C        -3.82970123       2.14232151       1.44523503
C        -4.55966202       2.29356312       0.08496512
C        -3.96134842       3.38184358      -0.83609807
C        -4.19449231       4.82049058      -0.39138541
C        -6.07477429       2.54421490       0.29098547
C        -6.84754965       1.31474939       0.78107105
C        -8.33888793       1.62149519       0.92903191
C        -9.11163351       0.40346630       1.40989383
C        -2.17361793       0.25488273       1.74769287
C        -2.48999009      -0.86106411       0.71835414
C        -3.95339952      -1.34917811       0.72444492
C        -4.46626871      -1.79798916       2.08679772
C        -1.99018808      -0.50250503      -0.69938642
C        -2.07363292      -1.61526231      -1.75331009
C        -1.30511321      -2.89707221      -1.42187041
C         0.18821997      -2.67658793      -1.23154602
H         3.26040768      -3.72266474      -5.53493083
H         3.96462656      -2.59165037      -6.70732203
H         4.64342594      -4.21837824      -6.52567440
H         6.09550113      -2.56584442      -5.39537127
H         5.39499005      -3.69103367      -4.22936906
H         4.32340868      -0.88865870      -4.84234654
H         3.62094712      -2.01351063      -3.67814249
H         5.77358961      -2.02557860      -2.39120459
H         6.48529475      -0.92073705      -3.54161814
H         5.84046904       0.25744628      -1.53825569
H         4.44389559       2.07661950      -2.37338851
H         3.83275352       1.09038961      -3.69132653
H         6.77294117       1.87674629      -3.30835138
H         5.62098140       2.70133056      -4.37137662
H         6.09263547       1.03758327      -4.71951903
H         4.00243883      -1.41464545      -0.91679314
H         2.92568203      -0.56207854      -2.00934220
H         5.23573140      -0.12629046       0.71338248
H         4.59073410       1.42598881       1.21263288
H         2.62957670       0.23585283       2.30242859
H         3.87980487      -0.73957614       4.22215325
H         5.35759535      -0.77155573       3.26777026
H         5.41024554       1.69756654       3.23114015
H         3.79497646       1.77295332       3.97070720
H         5.17428803       1.14479636       4.88691949
H         4.13807056      -2.31175581       1.55045265
H         2.62824843      -1.76816081       0.83257879
H         2.23690092      -3.55067139       2.39997475
H         2.98266840      -2.67458512       3.71971887
H         0.50356414      -1.71864312       2.18401227
H         1.19068223      -0.93769169       3.61040600
H        -0.75364232      -2.31548909       4.22589002
H         0.00865360      -3.75862449       3.53745896
H         0.71366511      -2.97853661       4.96776752
H         2.92441081       3.37539941       0.26503337
H         2.59679434       2.24799744       1.56624784
H         0.05995264       1.23651758       0.53685523
H         0.34086476       1.83413272       2.19378015
H        -3.84239965       3.10164412       1.97545237
H        -4.37554241       1.44891535       2.09138269
H        -4.45565745       1.35698832      -0.46938531
H        -2.88929170       3.20815072      -0.97350767
H        -4.40183570       3.26808757      -1.83562107
H        -3.64671515       5.50513560      -1.04725202
H        -5.25365191       5.08855000      -0.45376249
H        -3.86006618       4.99743910       0.63320231
H        -6.22118406       3.36864739       1.00000601
H        -6.51758511       2.86216560      -0.66189894
H        -6.45766723       0.97342420       1.74519446
H        -6.71761993       0.49393721       0.06622526
H        -8.74942658       1.95088676      -0.03253170
H        -8.48123906       2.44224261       1.64161027
H        -8.74690168       0.06761752       2.38588641
H       -10.17479895       0.64380700       1.50880109
H        -9.01511530      -0.42656473       0.70272319
H        -2.67790519       0.07268521       2.70234540
H        -1.11559847       0.15239656       2.00172713
H        -1.89964585      -1.72333357       1.05877563
H        -4.04576106      -2.21167906       0.05475840
H        -4.62106457      -0.58569002       0.32716560
H        -4.60539727      -0.95384045       2.76723340
H        -3.78084992      -2.51430601       2.55034524
H        -5.44035562      -2.28589072       1.97537680
H        -2.55038211       0.35690108      -1.08188089
H        -0.94760272      -0.17823275      -0.64293037
H        -1.68879693      -1.21391237      -2.69990516
H        -3.12265240      -1.86739775      -1.94503292
H        -1.44883556      -3.60668438      -2.24570789
H        -1.72214572      -3.37416832      -0.52860864
H         0.69508417      -3.63598241      -1.08674365
H         0.39310558      -2.05857007      -0.35314536
H         0.62882801      -2.18952475      -2.10721435
