131
lig_095 free ligand  charge=0 uhf=0  ETKDGv3+randomCoords + MMFF94s  smiles=CCCCCCCCN(CCCCCCCC)C(=O)[C@H](CCC)O[C@H](CCC)C(=O)N(CCCCCCCC)CCCCCCCC
C         4.21139259       4.81218728       3.78992966
C         3.46855680       3.93333537       2.79499189
C         3.09775585       2.58414588       3.41228382
C         2.24300576       1.70790133       2.49134241
C         2.99856875       1.20705048       1.25747945
C         2.13013095       0.36117684       0.32312556
C         1.70499207      -0.97950328       0.92096603
C         0.93794093      -1.81564757      -0.10748584
N         0.43069117      -3.05717652       0.47637747
C         1.35084146      -4.19752480       0.55210689
C         1.24776386      -5.12588728      -0.66630797
C         2.28916272      -4.84171988      -1.75473981
C         3.69155859      -5.32910691      -1.36880472
C         4.76812499      -4.85946109      -2.35400202
C         5.60837214      -3.68254974      -1.84391869
C         4.80671910      -2.40795126      -1.58614124
C         5.71125007      -1.26164150      -1.15938373
C        -0.86277943      -3.22387217       0.98364897
O        -1.20285938      -4.29190795       1.50215653
C        -1.84036407      -2.01237715       0.92460339
C        -3.02330386      -2.19180253       1.90117555
C        -4.08117135      -3.21082739       1.45844095
C        -5.24643746      -3.25087237       2.43669899
O        -2.31201663      -1.77810113      -0.40413999
C        -2.77136854      -0.44585450      -0.65128497
C        -4.21655156      -0.49326738      -1.18041152
C        -4.41415654      -1.44627427      -2.36476344
C        -5.86543464      -1.46530625      -2.82076810
C        -1.88401983       0.31839891      -1.67413905
O        -1.24494267      -0.29244258      -2.53608143
N        -1.83252009       1.71547214      -1.59697544
C        -1.08165395       2.42610690      -2.63634916
C         0.42922091       2.42438297      -2.39666145
C         1.16337624       3.18103067      -3.50645041
C         2.68793282       3.08105043      -3.38120046
C         3.33168610       2.09540722      -4.36480061
C         2.96652481       0.63257185      -4.10765843
C         3.55525268      -0.33223725      -5.14132348
C         5.07501063      -0.34498306      -5.18100363
C        -2.39797756       2.51114395      -0.50213813
C        -1.44219799       2.60445818       0.69066374
C        -2.11316425       3.12325077       1.96505230
C        -3.01138242       2.07221249       2.62526165
C        -3.61365618       2.59049858       3.93220877
C        -4.41177716       1.52666961       4.69353878
C        -5.60091081       0.92168946       3.94297792
C        -6.64571558       1.94675301       3.53173714
H         3.59469975       5.01562193       4.67120161
H         4.47083159       5.77041539       3.32900486
H         5.13782473       4.33238795       4.12139309
H         2.56248338       4.45339020       2.46326195
H         4.10350219       3.78960320       1.91461230
H         2.53209081       2.75949119       4.33602400
H         4.00759204       2.04226395       3.69772815
H         1.35058252       2.26422831       2.18148040
H         1.89432898       0.85105011       3.07864329
H         3.36668171       2.06214146       0.67977262
H         3.87820596       0.63030703       1.56736492
H         1.23970104       0.93220564       0.04079139
H         2.69400038       0.17877726      -0.59928223
H         2.58932682      -1.52886777       1.26424059
H         1.07318613      -0.81770230       1.80106216
H         1.57979399      -2.05692237      -0.95784682
H         0.11362390      -1.22764930      -0.50445774
H         2.36755127      -3.82472966       0.70717672
H         1.10193375      -4.78057330       1.44674143
H         1.37451708      -6.16322021      -0.33187553
H         0.24502175      -5.05992880      -1.10570584
H         1.98491346      -5.36783740      -2.66867144
H         2.29967753      -3.77883162      -2.00557642
H         3.67433584      -6.42673150      -1.37074112
H         3.95473619      -5.03123038      -0.34856980
H         5.45731166      -5.69539866      -2.52965945
H         4.32882604      -4.61301941      -3.32794261
H         6.12637939      -3.98082611      -0.92383305
H         6.38835359      -3.47328109      -2.58675590
H         4.06832301      -2.57742067      -0.79658559
H         4.26052908      -2.12189774      -2.49133188
H         6.46887918      -1.05208313      -1.92084648
H         5.12474796      -0.35095703      -1.00545668
H         6.22422967      -1.49740961      -0.22149636
H        -1.26624539      -1.14368562       1.27166860
H        -3.52312167      -1.22282061       2.02110469
H        -2.64134175      -2.46732897       2.89225342
H        -4.46619674      -2.96398440       0.46507152
H        -3.64995547      -4.21378281       1.38930176
H        -4.90738958      -3.52857619       3.43977165
H        -5.98797983      -3.98765065       2.11231471
H        -5.74134447      -2.27633975       2.49745687
H        -2.77446842       0.10898281       0.28857957
H        -4.54727220       0.51146002      -1.46900989
H        -4.87423532      -0.81735539      -0.36492251
H        -4.11831960      -2.46462390      -2.08966065
H        -3.78363932      -1.13984637      -3.20633070
H        -6.18996294      -0.46936218      -3.13868584
H        -6.52528043      -1.80159794      -2.01459789
H        -5.98767338      -2.14859489      -3.66699007
H        -1.29284666       1.94210043      -3.59818498
H        -1.46028639       3.45158654      -2.71270407
H         0.79255980       1.39419141      -2.33578166
H         0.65721276       2.89220780      -1.43299771
H         0.87732693       4.23854440      -3.43881990
H         0.83435336       2.83317662      -4.49270649
H         3.10861959       4.07130991      -3.59870571
H         2.98555458       2.83882959      -2.35398099
H         4.41848664       2.21711123      -4.28922107
H         3.05476414       2.37135893      -5.38966224
H         3.29713625       0.34231727      -3.10360556
H         1.87821539       0.51259383      -4.13404295
H         3.17031500      -0.08594449      -6.13788408
H         3.20305904      -1.34441216      -4.90847874
H         5.49477804      -0.52629904      -4.18792536
H         5.47378129       0.60131758      -5.55801056
H         5.42618994      -1.13923569      -5.84761597
H        -2.63654973       3.51441485      -0.87357837
H        -3.35196982       2.07131134      -0.20680040
H        -0.97962247       1.63145375       0.89385638
H        -0.62310011       3.28485169       0.43034234
H        -1.32648977       3.40994724       2.67405241
H        -2.68919637       4.02952548       1.74371646
H        -2.42563884       1.16715976       2.82697562
H        -3.81642607       1.79224461       1.93937002
H        -4.24568412       3.46287474       3.73018261
H        -2.80568153       2.94031779       4.58706082
H        -4.77234101       1.97016636       5.63010168
H        -3.73388426       0.71280337       4.97998005
H        -6.07785736       0.18008768       4.59533514
H        -5.25715886       0.37548818       3.05815298
H        -7.51237453       1.44335757       3.09127940
H        -6.25245652       2.64234248       2.78457530
H        -6.99169091       2.52359889       4.39517020
