63
lig_114 free ligand  charge=0 uhf=0  ETKDGv3 + MMFF94s  smiles=CCCCCCN(CCCCCC)C(=O)COCC(=O)N1CCCC1
C        -2.65490148       5.20698230      -0.25648326
C        -2.45634462       4.09714300      -1.27672489
C        -3.56105817       3.03872047      -1.25210093
C        -3.73820064       2.29525809       0.07562617
C        -2.49704186       1.56995051       0.60294733
C        -1.97775569       0.48907981      -0.34847772
N        -0.89100310      -0.28833828       0.25633719
C        -1.27200437      -1.43844789       1.07973086
C        -1.39158945      -2.71451606       0.24287684
C        -1.78918107      -3.91020349       1.11188042
C        -1.93188692      -5.21044811       0.31348724
C        -3.36504079      -5.54592759      -0.10990120
C        -3.98728895      -4.54897807      -1.07192547
C         0.46864761      -0.03020177       0.07760375
O         1.33643940      -0.74696100       0.58305763
C         0.85205518       1.19667996      -0.77552361
O         2.23697737       1.50057024      -0.85258961
C         2.73341342       2.09446828       0.34219352
C         4.23397263       2.39096775       0.25229099
O         4.65629251       3.54602218       0.34722873
N         5.08046103       1.31401756       0.10255781
C         4.69731706      -0.08742666       0.01708694
C         6.01578395      -0.84239453       0.12175256
C         7.01495151       0.12708573      -0.49813165
C         6.51568763       1.48161485      -0.01742148
H        -2.57159293       4.83047500       0.76721248
H        -3.63582580       5.67809910      -0.37416813
H        -1.89030326       5.97931257      -0.38836355
H        -2.43176671       4.54513322      -2.27755085
H        -1.47740393       3.63157056      -1.12424348
H        -4.51490986       3.51933102      -1.50449020
H        -3.37033412       2.31458470      -2.05296354
H        -4.08388358       2.99866710       0.84248385
H        -4.54787564       1.56446105      -0.04622382
H        -1.70237692       2.29008870       0.82692944
H        -2.75898974       1.11191525       1.56494449
H        -2.78387399      -0.20263829      -0.61902270
H        -1.62721790       0.94211250      -1.27869187
H        -0.52256626      -1.58406916       1.86649589
H        -2.22085700      -1.21475967       1.58021145
H        -2.12110352      -2.55911388      -0.55750240
H        -0.43332592      -2.92230863      -0.24936972
H        -2.71164184      -3.69500123       1.66386890
H        -1.00240002      -4.05581135       1.86334247
H        -1.58667278      -6.03497671       0.95072064
H        -1.27218799      -5.20348696      -0.56229573
H        -3.35799575      -6.53241855      -0.58930794
H        -4.00140489      -5.63557707       0.77850042
H        -3.34375823      -4.38374746      -1.94150679
H        -4.95065316      -4.92565573      -1.43087065
H        -4.17419745      -3.58840498      -0.58335965
H         0.53063470       0.98379385      -1.80054036
H         0.30628814       2.07825574      -0.42613486
H         2.56003912       1.45071777       1.21044954
H         2.21583682       3.04606271       0.51205811
H         4.00071705      -0.35473212       0.81487980
H         4.22197294      -0.25382105      -0.95502248
H         6.26925217      -1.01091179       1.17541388
H         5.98798349      -1.81142663      -0.38379120
H         8.04762632      -0.07236295      -0.19962982
H         6.95495495       0.07080191      -1.59174568
H         6.76223878       2.29663535      -0.70447689
H         6.90887251       1.72448887       0.97600425
