50
lig_134 free ligand  charge=0 uhf=0  ETKDGv3 + MMFF94s  smiles=CCCCN(CCCC)C(=O)c1ccc2ccc3cccnc3c2n1
C        -2.26177795       0.32026305      -3.34270970
C        -1.56129007      -0.78555772      -2.56889270
C        -1.91504926      -0.81088349      -1.08140574
C        -1.46339540       0.44056191      -0.32463814
N        -1.75996637       0.33847579       1.11076152
C        -3.01106554       0.95026488       1.56309471
C        -2.81047368       2.30870395       2.24418483
C        -2.29548531       3.39146128       1.29507567
C        -2.20271352       4.74096497       1.99051040
C        -0.99736716      -0.35165440       2.07137636
O        -1.37541138      -0.40909555       3.24824081
C         0.28292330      -1.07472911       1.74102758
C         0.80393620      -1.95226812       2.68079608
C         1.99062249      -2.61258907       2.38994358
C         2.63754040      -2.37931216       1.17197716
C         3.83341791      -3.03904396       0.87482986
C         4.47406125      -2.80167303      -0.33245725
C         3.92438336      -1.90175016      -1.25017015
C         4.57102678      -1.65754652      -2.47002696
C         4.02644760      -0.76281182      -3.37931713
C         2.84719232      -0.13925292      -3.03618979
N         2.19860569      -0.35228967      -1.87193279
C         2.71343064      -1.22399126      -0.96678122
C         2.06246533      -1.46748042       0.25590001
N         0.89908693      -0.84009830       0.56168815
H        -1.91870970       1.30991805      -3.02727755
H        -2.04902670       0.22249121      -4.41215944
H        -3.34663492       0.26907332      -3.20694344
H        -0.47817016      -0.68590367      -2.69379503
H        -1.84219197      -1.75007455      -3.00847177
H        -2.99894431      -0.93702349      -0.96549634
H        -1.45929629      -1.70209367      -0.63440636
H        -0.40599929       0.65507849      -0.48106156
H        -1.99132643       1.31794143      -0.71444460
H        -3.48964807       0.27085373       2.27900721
H        -3.70192570       1.03952867       0.71646535
H        -3.77433544       2.62734084       2.66010324
H        -2.11883829       2.20796221       3.08905357
H        -1.30284814       3.12244273       0.91766070
H        -2.96351632       3.47856025       0.43054222
H        -3.18389889       5.06456997       2.35226492
H        -1.51887546       4.69596507       2.84414931
H        -1.82973984       5.50018038       1.29594393
H         0.29790713      -2.12274855       3.62622898
H         2.40313632      -3.30311794       3.12183975
H         4.27451609      -3.74026053       1.58030783
H         5.40453241      -3.32184678      -0.55016611
H         5.50214469      -2.16166902      -2.71787209
H         4.50947009      -0.55802902      -4.32760792
H         2.37107464       0.57219274      -3.70479051
