71
lig_041 free ligand  charge=0 uhf=0  ETKDGv3 + MMFF94s  smiles=CCCCCCCCCCCCOCc1cc(-n2ccc(C)n2)nc(-n2ccc(C)n2)c1
C        10.69775565      -1.95348245      -2.09962074
C         9.92398103      -0.75224430      -1.57846446
C         9.47836247      -0.96164404      -0.12938318
C         8.68494575       0.22525871       0.42778406
C         7.16209301       0.04333468       0.41207076
C         6.56185818      -0.08454453      -0.98834024
C         5.03246224      -0.19623008      -0.98614935
C         4.33098043       1.08488684      -0.52665507
C         2.81471853       1.06259009      -0.75382716
C         2.08877913       0.02483783       0.10630753
C         0.57542304      -0.00087485      -0.12158188
C        -0.13854968       1.26397961       0.35179364
O        -1.54582634       1.16464773       0.12956778
C        -2.23417794       0.49661301       1.18685831
C        -3.71370017       0.43846943       0.89270902
C        -4.62302760       0.30395397       1.94670663
C        -5.98183171       0.21575201       1.65946595
N        -6.91352195       0.08244869       2.73240179
C        -8.28303505      -0.01499509       2.61240512
C        -8.79220877      -0.12793244       3.88187947
C        -7.66434709      -0.09231952       4.72786565
C        -7.63307887      -0.17642930       6.20772605
N        -6.52395280       0.03366706       4.03846195
N        -6.46648045       0.24735636       0.39214468
C        -5.58326479       0.36858677      -0.63523420
N        -6.10694971       0.40003869      -1.97192157
C        -5.41599756       0.52805331      -3.16241471
C        -6.34303262       0.50381556      -4.17653591
C        -7.58384320       0.35873601      -3.52862759
C        -8.93200235       0.27632895      -4.13915084
N        -7.44645128       0.29557101      -2.20182762
C        -4.20911292       0.45728572      -0.41880431
H        10.07883691      -2.85621690      -2.08108688
H        11.59222252      -2.13673282      -1.49574605
H        11.01527812      -1.78050517      -3.13268019
H        10.56133557       0.13756972      -1.64293395
H         9.06276862      -0.57581020      -2.22945996
H         8.90341633      -1.89012377      -0.03299757
H        10.37959231      -1.08891537       0.48431806
H         8.95697169       1.15352118      -0.08858033
H         8.97805259       0.36161231       1.47694687
H         6.89550924      -0.83954009       1.00603788
H         6.72487716       0.90787643       0.92396994
H         6.95409503      -0.98850630      -1.46738219
H         6.86827707       0.76757287      -1.60650804
H         4.70773914      -0.43464424      -2.00652955
H         4.73621190      -1.03970813      -0.35252162
H         4.53004455       1.26701440       0.53529469
H         4.74511848       1.93737882      -1.07905911
H         2.60420480       0.87883382      -1.81427485
H         2.43190835       2.06307564      -0.52355166
H         2.29746427       0.20933936       1.16696976
H         2.47454647      -0.97468345      -0.12362686
H         0.16394453      -0.87081644       0.40304015
H         0.35441957      -0.16908353      -1.18298683
H         0.07409176       1.47976511       1.40533580
H         0.20171695       2.12358554      -0.23320297
H        -2.06842187       1.04944625       2.11901258
H        -1.86071561      -0.52652297       1.29832505
H        -4.27100908       0.26997840       2.97467905
H        -8.75370452       0.00674255       1.63852884
H        -9.83301919      -0.22256214       4.15730109
H        -8.64264765      -0.27576053       6.61916585
H        -7.18086533       0.72481143       6.63404539
H        -7.04891638      -1.04413927       6.53070018
H        -4.34271948       0.62815885      -3.19873086
H        -6.14942553       0.58219409      -5.23704072
H        -9.56567995       1.09504772      -3.78324954
H        -9.41327608      -0.67256778      -3.88129995
H        -8.87577449       0.34169099      -5.23046822
H        -3.50343540       0.54528767      -1.23736290
