119
lig_094 free ligand  charge=0 uhf=0  ETKDGv3 + MMFF94s  smiles=CCCCCCCCN(CCCCCCCC)C(=O)[C@H](C)O[C@H](C)C(=O)N(CCCCCCCC)CCCCCCCC
C        -3.73019470       2.27583026      -4.28048965
C        -4.03383017       3.49155071      -3.41791032
C        -3.56856221       3.34001972      -1.96744872
C        -4.32019594       2.24522127      -1.20655073
C        -3.97015321       2.19436066       0.28431911
C        -2.49654917       1.93017877       0.61258724
C        -1.89342429       0.67654437      -0.02648130
C        -2.61582543      -0.61314116       0.37457464
N        -1.94125513      -1.81266926      -0.14174425
C        -2.01917607      -2.04723500      -1.58533043
C        -2.93671217      -3.20961598      -1.99028171
C        -4.43292625      -2.93132214      -1.80142945
C        -4.95667596      -3.37237086      -0.43226033
C        -6.40107952      -2.93638865      -0.16298555
C        -7.42112444      -3.60084002      -1.09095846
C        -8.86342898      -3.16976768      -0.81114217
C        -9.38919145      -3.63806600       0.53698691
C        -1.17326256      -2.69660545       0.61047056
O        -0.51517660      -3.59296594       0.06603330
C        -1.13849164      -2.60283052       2.15846410
C        -2.46396346      -3.06157730       2.75978884
O        -0.78399421      -1.34220422       2.71061455
C         0.60674877      -1.02784885       2.56400230
C         1.36386191      -1.52311564       3.79289456
C         0.80952606       0.50197698       2.45512777
O         0.04133945       1.28128006       3.02788172
N         1.88239801       0.97612636       1.69462851
C         2.80992862       0.13629547       0.92952789
C         2.29657742      -0.11507580      -0.49095170
C         3.14729005      -1.11627810      -1.27636185
C         4.57590972      -0.62578373      -1.53132194
C         5.37159874      -1.56421393      -2.44620762
C         5.42682636      -1.12750108      -3.91451575
C         4.07062072      -1.11268952      -4.61646082
C         4.21720945      -0.81414453      -6.10104394
C         2.04244392       2.42674207       1.57307992
C         2.71459118       3.06676562       2.79288378
C         4.16185750       2.60930593       2.99275424
C         4.82423101       3.35749801       4.15173401
C         6.23088273       2.84787109       4.48066101
C         7.25178526       2.92154962       3.34112710
C         7.48208543       4.34043213       2.82067081
C         8.58259556       4.37390870       1.77112043
H        -2.66587772       2.02291572      -4.24298048
H        -4.30515513       1.40213099      -3.96004545
H        -3.99330430       2.48047491      -5.32327116
H        -5.10957076       3.70021627      -3.44618182
H        -3.53057447       4.36254736      -3.85444897
H        -3.71811765       4.29873743      -1.45587617
H        -2.49130138       3.13950696      -1.95743096
H        -4.13151241       1.26704403      -1.66092390
H        -5.39906559       2.42368887      -1.29624969
H        -4.58973972       1.42475218       0.76041649
H        -4.26161215       3.14401363       0.75056155
H        -2.39698316       1.85749619       1.70265022
H        -1.89590917       2.79764835       0.31398962
H        -0.84220360       0.60761975       0.26835872
H        -1.88128246       0.78994512      -1.11550467
H        -3.63635840      -0.61915356      -0.02100302
H        -2.70005297      -0.64635684       1.45884890
H        -1.00546013      -2.26421361      -1.94479318
H        -2.33899906      -1.13298079      -2.09606927
H        -2.76866353      -3.38489445      -3.06093238
H        -2.65224612      -4.13536554      -1.47760066
H        -4.64854860      -1.87077308      -1.97535091
H        -4.97329543      -3.49208779      -2.57345487
H        -4.87971585      -4.46299279      -0.34378445
H        -4.33115554      -2.95337620       0.35983374
H        -6.47616420      -1.84556607      -0.24918672
H        -6.63345617      -3.18820184       0.87789542
H        -7.19423769      -3.34117320      -2.13105942
H        -7.34090569      -4.69158336      -1.01053257
H        -8.94691815      -2.07874982      -0.87723364
H        -9.50674773      -3.58466991      -1.59642560
H       -10.45132944      -3.39005939       0.63179544
H        -8.86265627      -3.15397683       1.36442662
H        -9.28392913      -4.72213277       0.64524097
H        -0.39244863      -3.34029652       2.48517090
H        -3.27200093      -2.34489595       2.59293330
H        -2.36659677      -3.16517302       3.84620006
H        -2.77467559      -4.02587828       2.34491047
H         0.98687247      -1.51221255       1.66254624
H         2.42161789      -1.24491701       3.75795343
H         1.29578428      -2.61143048       3.88558139
H         0.93313773      -1.10120583       4.70826920
H         2.96437682      -0.81249015       1.44992308
H         3.78293964       0.63762384       0.90476267
H         2.24172191       0.83301391      -1.03989637
H         1.27064717      -0.49977090      -0.44886639
H         2.64193281      -1.31552319      -2.22667190
H         3.17858873      -2.07068626      -0.73626019
H         5.09907378      -0.57606488      -0.56868496
H         4.56782529       0.39241531      -1.93726628
H         4.99567696      -2.59161565      -2.37260376
H         6.40709373      -1.58998331      -2.08254259
H         5.88415916      -0.13242030      -3.98069648
H         6.09820679      -1.81395714      -4.44579520
H         3.42403300      -0.34885268      -4.17182687
H         3.57425951      -2.08187374      -4.49296679
H         4.68799666       0.16124984      -6.26023083
H         3.23478576      -0.80024871      -6.58335289
H         4.82763508      -1.57588301      -6.59648825
H         1.04844787       2.87324167       1.44717102
H         2.60588104       2.65529033       0.66103352
H         2.13720782       2.84854787       3.69901180
H         2.69761128       4.15556874       2.66022176
H         4.18643815       1.53319660       3.19913581
H         4.72253055       2.78142398       2.06736913
H         4.85526866       4.43093218       3.93244390
H         4.20528760       3.24601057       5.05103962
H         6.16004392       1.80470744       4.81345075
H         6.61351630       3.41756699       5.33675015
H         8.20232899       2.51769364       3.71229120
H         6.94355591       2.26783354       2.51702875
H         6.56320919       4.73698357       2.37578692
H         7.75618203       5.00205071       3.65039223
H         9.53200952       4.02072519       2.18607591
H         8.32585029       3.74340644       0.91382958
H         8.72992309       5.39626085       1.40913266
