96
lig_132 free ligand  charge=0 uhf=0  ETKDGv3 + MMFF94s  smiles=CCCCN(CCCC)C(=O)COCC(=O)NCc1cccc(CNC(=O)COCC(=O)N(CCCC)CCCC)c1
C        -6.49789797      -2.27561144      -3.01472259
C        -5.56998996      -1.63716422      -1.99303429
C        -4.56576324      -2.65083945      -1.44240256
C        -3.59999280      -2.04287115      -0.42532798
N        -4.22324121      -1.65165567       0.84631271
C        -4.38804443      -2.70326621       1.85825629
C        -5.81925236      -2.94027044       2.35781215
C        -6.76467284      -3.48387882       1.28910919
C        -8.13565905      -3.80024015       1.86777085
C        -4.43553080      -0.28957842       1.06318770
O        -4.28941126       0.54021337       0.15878183
C        -4.83213209       0.18519291       2.47359682
O        -4.38540912       1.50669204       2.77663842
C        -3.13365680       1.53384906       3.44815867
C        -1.92094473       1.00789263       2.67205823
O        -1.12588963       0.20845161       3.15922489
N        -1.80725851       1.52494682       1.40630116
C        -0.74688127       1.12570297       0.51760191
C        -0.64591996       2.03588893      -0.67521709
C        -1.60872308       1.99519055      -1.69179702
C        -1.49664440       2.82768768      -2.80538118
C        -0.41923149       3.70724048      -2.91852218
C         0.55274127       3.77189172      -1.91280080
C         1.72317852       4.71445156      -2.03246812
N         2.97880678       4.01026483      -1.98243264
C         4.18314861       4.62163266      -2.22655561
O         4.29657545       5.81192986      -2.50780375
C         5.39140919       3.69918766      -2.03448348
O         5.20562520       2.43161030      -2.66043596
C         5.57938859       1.33211942      -1.83989468
C         4.57528138       0.98848804      -0.72288540
O         3.57436605       1.69102368      -0.54985130
N         4.82609823      -0.13187615       0.06628440
C         6.04849995      -0.94195761       0.01058670
C         6.99607377      -0.69760125       1.19203196
C         7.59325611       0.70978593       1.20971459
C         8.53974394       0.89623005       2.38574036
C         3.82147730      -0.49811213       1.06713854
C         2.52275435      -1.07809657       0.48894243
C         2.67261079      -2.43997674      -0.19383013
C         3.03571048      -2.34348928      -1.66822781
C         0.41829139       2.94160594      -0.78723340
H        -5.93265437      -2.67760822      -3.86157123
H        -7.07246783      -3.09201067      -2.56546712
H        -7.20507907      -1.53424860      -3.39964815
H        -5.03518585      -0.80462340      -2.46487458
H        -6.17404265      -1.21559620      -1.18303648
H        -5.09129758      -3.50422637      -1.00323415
H        -3.97503604      -3.04718876      -2.27794743
H        -3.09569922      -1.18239985      -0.87988122
H        -2.80462422      -2.76301155      -0.19738799
H        -3.99613952      -3.64592806       1.45766901
H        -3.74660046      -2.44112326       2.70707228
H        -6.24756763      -2.02827473       2.78135740
H        -5.76744050      -3.66441503       3.18101239
H        -6.88713624      -2.74871191       0.48883153
H        -6.34623832      -4.39473737       0.84685870
H        -8.79776063      -4.18322714       1.08488485
H        -8.59732242      -2.90427642       2.29497361
H        -8.06468175      -4.55890525       2.65369810
H        -5.92677612       0.21865829       2.48510762
H        -4.51050377      -0.50441000       3.25643813
H        -2.92301155       2.57948310       3.69915933
H        -3.21367486       0.98792554       4.39557128
H        -2.60699402       2.01835553       1.01549317
H         0.19531764       1.10259132       1.07768917
H        -0.94378026       0.09793529       0.19009111
H        -2.45420136       1.31325297      -1.61968958
H        -2.24949742       2.78733077      -3.58831998
H        -0.34213981       4.34061792      -3.79944670
H         1.68424489       5.28176255      -2.96955161
H         1.70084679       5.44003516      -1.21114001
H         2.99378352       3.03400586      -1.68427907
H         6.26395997       4.17354332      -2.49493280
H         5.57251606       3.60982929      -0.95662962
H         5.63785016       0.46304579      -2.50332462
H         6.57229570       1.51009911      -1.41703566
H         5.74387242      -1.99476470       0.00554623
H         6.58640398      -0.76995765      -0.92461131
H         7.81148859      -1.42930575       1.13301665
H         6.47722422      -0.88367407       2.13934063
H         6.79779339       1.46016090       1.27464583
H         8.14305229       0.89136159       0.27952289
H         9.36991188       0.18427187       2.33827739
H         8.95867111       1.90736038       2.37812486
H         8.01684052       0.75228365       3.33662913
H         4.25372121      -1.20853856       1.78009573
H         3.57453615       0.40802439       1.63439124
H         1.83072125      -1.20513950       1.33172159
H         2.04436351      -0.36745568      -0.19382476
H         1.71052943      -2.96308251      -0.12608967
H         3.40406862      -3.06064851       0.33539970
H         4.02171207      -1.90069475      -1.82163346
H         3.04902157      -3.34262300      -2.11572754
H         2.30148639      -1.74175164      -2.21358648
H         1.16842980       2.98793952       0.00199946
