123
lig_075 free ligand  charge=0 uhf=0  ETKDGv3 + MMFF94s  smiles=CCCCCCCCN(CCCCCCCC)C(=O)COC(C(=O)N(CCCCCCCC)CCCCCCCC)c1ccccc1
C         8.14621036       4.56587446       1.21856775
C         6.89248304       5.15345925       0.59000604
C         6.27107691       4.26023064      -0.48631965
C         5.84078972       2.86473218      -0.02487083
C         4.78098628       2.88771780       1.07866717
C         4.30292142       1.47241193       1.41439367
C         3.24964647       1.48735525       2.52157312
C         2.71215991       0.09320981       2.87957371
N         2.01234375      -0.60646275       1.79863007
C         2.41455958      -1.99030073       1.50736106
C         3.48857909      -2.09710307       0.42052725
C         4.89787574      -2.24068425       1.00189916
C         5.98129366      -2.39273506      -0.07157289
C         6.20872614      -1.11376056      -0.88162743
C         7.40901788      -1.20054230      -1.82923373
C         7.21970238      -2.21719850      -2.95549724
C         8.38614198      -2.18658378      -3.93138244
C         0.85944148      -0.02846703       1.26600833
O         0.36674636       1.00667843       1.72422405
C         0.18081723      -0.71870476       0.07223992
O        -0.66080118      -1.79748935       0.44902284
C        -1.92945551      -1.36775618       0.95739543
C        -2.91576858      -0.90898897      -0.16738571
O        -2.75057766      -1.30355261      -1.32857690
N        -3.97165174      -0.04906407       0.15806903
C        -4.13522945       0.60519799       1.46002433
C        -3.25499680       1.84770694       1.64476619
C        -3.64135484       3.01911495       0.73894889
C        -2.82614695       4.27022066       1.07797383
C        -3.07778457       5.43729030       0.11777859
C        -4.50936515       5.97604331       0.18223623
C        -4.70251414       7.27008938      -0.61265335
C        -4.51167549       7.09483547      -2.11132943
C        -4.98311019       0.23156250      -0.86936100
C        -6.32884344      -0.46117477      -0.61068926
C        -6.28205776      -1.99051245      -0.55495837
C        -5.95972911      -2.63873597      -1.90227513
C        -5.96465838      -4.16575789      -1.79354569
C        -5.59435475      -4.81852228      -3.12662100
C        -5.66410345      -6.34666907      -3.09210467
C        -4.64313499      -6.98023845      -2.15932904
C        -2.48260676      -2.56472319       1.71958437
C        -2.55314813      -2.54404296       3.12172747
C        -3.05453925      -3.64161428       3.82419619
C        -3.47966712      -4.77661364       3.13654094
C        -3.39570759      -4.82007787       1.74681598
C        -2.89437441      -3.72441675       1.04289311
H         8.88728661       4.31187439       0.45416829
H         7.92045781       3.66468142       1.79617932
H         8.59925427       5.29162542       1.90160982
H         6.15919913       5.37467719       1.37313789
H         7.15150928       6.11516431       0.13057463
H         6.98857319       4.14569807      -1.30854276
H         5.40108925       4.77895247      -0.90796753
H         6.71446215       2.29400739       0.31014524
H         5.44003327       2.32954051      -0.89514924
H         5.18988089       3.35145437       1.98328235
H         3.92781368       3.49659666       0.75626179
H         5.16006511       0.87210482       1.73707714
H         3.89149783       1.00917646       0.51136505
H         3.69330540       1.92154322       3.42654831
H         2.43263851       2.15653540       2.23358203
H         3.54088260      -0.52854853       3.23569064
H         2.00294254       0.19062611       3.71064368
H         2.73067435      -2.46975078       2.44142219
H         1.53745844      -2.55298905       1.17898192
H         3.28244628      -2.99408046      -0.17731918
H         3.42790805      -1.24277785      -0.26068377
H         5.13753245      -1.39229986       1.64850783
H         4.92492697      -3.13362938       1.63927480
H         5.71628180      -3.22328184      -0.73523405
H         6.91893252      -2.66964215       0.42597714
H         6.38454224      -0.28200903      -0.18982569
H         5.31264007      -0.86293618      -1.45981037
H         7.57067313      -0.20724617      -2.26652020
H         8.31301846      -1.44354410      -1.25761710
H         7.13334584      -3.22887869      -2.54516881
H         6.29162542      -2.00410931      -3.49829742
H         9.32733346      -2.42322678      -3.42491152
H         8.23384891      -2.92257717      -4.72704261
H         8.48380247      -1.20013860      -4.39585162
H        -0.37171132       0.03363988      -0.50299476
H         0.95030188      -1.10789004      -0.60117011
H        -1.76550386      -0.54976749       1.66117658
H        -3.89564411      -0.11572375       2.24515912
H        -5.18716228       0.87289087       1.60377317
H        -2.20430784       1.60079815       1.46840116
H        -3.33593118       2.16599553       2.69153360
H        -3.46175372       2.75132773      -0.30805320
H        -4.71101817       3.22604055       0.85227531
H        -1.75774900       4.02282883       1.04241146
H        -3.04253051       4.58643827       2.10566331
H        -2.37851935       6.24396242       0.36998810
H        -2.84008912       5.11831277      -0.90346994
H        -5.21389280       5.22180338      -0.18632567
H        -4.77260556       6.17395078       1.22852066
H        -5.71867852       7.64034711      -0.43154972
H        -4.01487878       8.04054327      -0.24494595
H        -3.47700748       6.83801651      -2.35655596
H        -5.16599191       6.30901788      -2.50173286
H        -4.75372717       8.02689713      -2.63208859
H        -4.61421936      -0.04407460      -1.86202207
H        -5.14550785       1.31373311      -0.89730466
H        -6.74687079      -0.10164093       0.33677624
H        -7.03551857      -0.15176150      -1.39074129
H        -5.56352708      -2.31727392       0.20436748
H        -7.26493948      -2.34737979      -0.22169202
H        -6.69854512      -2.32157481      -2.64811595
H        -4.98026821      -2.30780579      -2.25999411
H        -6.95745409      -4.50850975      -1.47820442
H        -5.25433643      -4.47147957      -1.01833586
H        -6.28035952      -4.46041781      -3.90422328
H        -4.58667341      -4.50450070      -3.42521397
H        -5.49008285      -6.72457907      -4.10667999
H        -6.67135318      -6.66815821      -2.80277574
H        -4.67092042      -8.07024845      -2.25749985
H        -4.85074992      -6.73801589      -1.11307620
H        -3.62931790      -6.64420796      -2.39868039
H        -2.21346143      -1.67289871       3.67783463
H        -3.10803378      -3.61349586       4.90937187
H        -3.86749430      -5.63152315       3.68389850
H        -3.71463612      -5.70846934       1.20815028
H        -2.81937375      -3.77897708      -0.04265406
