37
lig_159 free ligand  charge=0 uhf=0  ETKDGv3 + MMFF94s  smiles=Cc1cc(C)n(-c2cccc(-n3nc(C)cc3C)n2)n1
C        -5.96885109       0.87435366       0.16458184
C        -4.58228429       0.36626958       0.03759862
C        -4.15389403      -0.86044623      -0.49109850
C        -2.77937436      -0.85331097      -0.37439679
C        -1.82186773      -1.91330430      -0.75197878
N        -2.43323114       0.36679551       0.19455935
C        -1.12975617       0.89823604       0.51601133
C        -1.09482316       2.13546153       1.16767531
C         0.12786725       2.68832961       1.51745548
C         1.29161768       2.00199390       1.20501885
C         1.20931425       0.77441837       0.53951788
N         2.45626491       0.11747540       0.22591388
N         3.64039407       0.66410552       0.64553781
C         4.59153477      -0.17181818       0.22799328
C         6.01577025       0.11211868       0.52425280
C         4.05316813      -1.25730706      -0.47893356
C         2.68860934      -1.05498229      -0.48369294
C         1.64126401      -1.88378242      -1.11545702
N         0.00998002       0.20981851       0.19296228
N        -3.55625909       1.10478953       0.46143573
H        -6.69085101       0.15757786      -0.23961432
H        -6.21855733       1.05020198       1.21587985
H        -6.08477120       1.81587230      -0.38190392
H        -4.76306638      -1.65624179      -0.89740612
H        -1.20729381      -2.20570303       0.10326599
H        -2.35050251      -2.81158885      -1.08962566
H        -1.19100712      -1.58079841      -1.57897275
H        -2.00530315       2.67466946       1.41652577
H         0.17339813       3.64559562       2.02900931
H         2.24854990       2.43943934       1.47808282
H         6.17928527       0.17049690       1.60517699
H         6.31903320       1.06349015       0.07543573
H         6.66635757      -0.67292946       0.12567237
H         4.58537996      -2.07956683      -0.93730212
H         2.08835938      -2.69978880      -1.69391380
H         1.00454130      -2.33963076      -0.35437505
H         1.04100417      -1.29031006      -1.80980539
