66
lig_115 free ligand  charge=0 uhf=0  ETKDGv3 + MMFF94s  smiles=CCCCCCN(CCCCCC)C(=O)COCC(=O)N1CCCCC1
C        -4.43273116      -4.38074554       2.01372922
C        -3.23914621      -3.63973452       2.59625560
C        -2.55905678      -2.69403436       1.60265097
C        -3.44185087      -1.51159995       1.19233235
C        -2.75420927      -0.56002449       0.20776484
C        -1.65456924       0.28513126       0.85067127
N        -0.90619933       1.08647878      -0.12637560
C        -1.35661813       2.45842456      -0.38269139
C        -1.73208795       2.75557780      -1.84151154
C        -3.02278419       2.10039139      -2.33834308
C        -4.30582546       2.53662402      -1.62284552
C        -4.61744149       4.02505579      -1.78448305
C        -5.96200386       4.37972753      -1.16755329
C         0.31545081       0.68199483      -0.66905672
O         1.03083425       1.44976968      -1.32053684
C         0.78504533      -0.76152941      -0.42336759
O         1.39449092      -0.94575998       0.84964724
C         2.74359657      -0.49433834       0.88489340
C         3.78532735      -1.42684560       0.22907857
O         3.44014455      -2.43319409      -0.39458964
N         5.12734023      -1.08174540       0.38461058
C         6.14787287      -1.98003181      -0.15577019
C         7.40181498      -1.98535651       0.71026850
C         8.01081273      -0.59013196       0.85355509
C         6.99573615       0.53143146       0.63732245
C         5.59145915       0.12602738       1.06992003
H        -4.80817990      -5.11308717       2.73576364
H        -5.25443874      -3.69807524       1.77908927
H        -4.15541048      -4.91712436       1.10082754
H        -2.50150927      -4.37956446       2.92973837
H        -3.55357194      -3.08287687       3.48658119
H        -1.64030455      -2.32555760       2.07159867
H        -2.25483736      -3.25543261       0.71091760
H        -3.76301981      -0.95622655       2.08160700
H        -4.34964242      -1.88910226       0.70807640
H        -3.51960983       0.10841244      -0.19704457
H        -2.36155347      -1.12752564      -0.64363583
H        -0.95443713      -0.34963072       1.39564612
H        -2.08536946       0.95982724       1.59995221
H        -2.18566050       2.70784389       0.28680486
H        -0.52569670       3.11916706      -0.10408587
H        -0.92136291       2.44557191      -2.51013647
H        -1.81192931       3.84217944      -1.96175831
H        -3.12978627       2.32445353      -3.40753111
H        -2.92517729       1.01148393      -2.27099218
H        -4.25422015       2.28808740      -0.55768918
H        -5.13722438       1.95147309      -2.03593197
H        -3.84242905       4.63047816      -1.30269524
H        -4.62852518       4.29142437      -2.84756531
H        -6.16458715       5.44841298      -1.28928848
H        -6.77343685       3.82367421      -1.64786684
H        -5.97462331       4.15105345      -0.09706879
H         1.45841045      -1.05044111      -1.23819271
H        -0.07041815      -1.43889901      -0.48777216
H         2.81724120       0.50337810       0.44142452
H         3.00858257      -0.40869717       1.94432274
H         6.38094523      -1.63621555      -1.17056264
H         5.75386096      -2.99847150      -0.23900222
H         8.14719431      -2.67540884       0.29943762
H         7.14197188      -2.36132504       1.70837462
H         8.83217245      -0.46617912       0.13751301
H         8.45900147      -0.50065526       1.85054312
H         7.31586291       1.43133975       1.17417634
H         6.97769429       0.79184425      -0.42896921
H         4.90103882       0.95188110       0.87888817
H         5.56758310      -0.08305273       2.14585626
