72
lig_142 free ligand  charge=0 uhf=0  ETKDGv3 + MMFF94s  smiles=CCN(C(=O)c1cccc(-c2cccc(C(=O)N(CC)c3cc(C)cc(C)c3)n2)n1)c1cc(C)cc(C)c1
C        -3.30460356      -0.68420374      -1.65530695
C        -3.79832022      -0.82925370      -0.21983336
N        -4.56425492       0.35203693       0.22781697
C        -3.96503331       1.60524980       0.51047892
O        -4.59191170       2.62221872       0.82389061
C        -2.47867563       1.78241581       0.43948544
C        -1.98401164       2.97509329      -0.07721875
C        -0.60883742       3.15898644      -0.11810256
C         0.22390148       2.15596643       0.37001037
C        -0.33482441       0.98926827       0.89737581
C         0.50219973      -0.10731711       1.44017388
C        -0.03723285      -1.15011449       2.19815828
C         0.79741745      -2.15218254       2.68881284
C         2.15578835      -2.09905103       2.40924106
C         2.62471167      -1.04769695       1.63242575
C         4.09277680      -0.94535226       1.36955555
O         4.82263074      -1.20828182       2.32904852
N         4.55557987      -0.61733213       0.07127369
C         3.70567453      -0.82748772      -1.11451381
C         3.66991305      -2.29020768      -1.54097301
C         5.92657227      -0.19795560      -0.13544632
C         6.66753757       0.39442631       0.89999758
C         7.99012057       0.83151532       0.71523293
C         8.75610354       1.41728217       1.86494951
C         8.59768542       0.66306094      -0.52996350
C         7.88491267       0.10223413      -1.59136431
C         8.54629439      -0.10526227      -2.92245378
C         6.56244914      -0.32678232      -1.38251375
N         1.83149965      -0.05142707       1.15865435
N        -1.68222210       0.80053196       0.93293395
C        -6.00056959       0.21585953       0.26754796
C        -6.60019935      -0.96654646       0.73038740
C        -7.99527505      -1.12377832       0.75576334
C        -8.60625124      -2.37775259       1.30842668
C        -8.80868014      -0.07037805       0.32971443
C        -8.24183376       1.11599685      -0.14340734
C        -9.11393909       2.25966830      -0.57073172
C        -6.84447850       1.25146539      -0.15845101
H        -4.14644791      -0.53923113      -2.34065091
H        -2.62745238       0.16441488      -1.77958040
H        -2.76844235      -1.58803422      -1.96158207
H        -4.40636536      -1.73683637      -0.18854923
H        -2.97113649      -1.02117347       0.46414178
H        -2.65845068       3.74712070      -0.43518192
H        -0.18697072       4.07794548      -0.51588223
H         1.30220559       2.29317776       0.35048313
H        -1.10044534      -1.17714096       2.42226043
H         0.39083952      -2.95753537       3.29453343
H         2.83662806      -2.85157094       2.79484401
H         4.03242899      -0.18447682      -1.93875106
H         2.68191094      -0.50961622      -0.92014927
H         3.04881661      -2.40779278      -2.43438856
H         4.67030698      -2.67005353      -1.76855993
H         3.24954006      -2.92136679      -0.75145019
H         6.21969423       0.55303259       1.87799027
H         8.09593310       1.99861709       2.51719171
H         9.22078537       0.61802136       2.45042176
H         9.53934342       2.09534251       1.50995493
H         9.63080524       0.97273937      -0.67361464
H         9.00066184      -1.09994763      -2.96320494
H         7.82017592      -0.01251368      -3.73692718
H         9.32410763       0.64601743      -3.09519698
H         6.05914376      -0.79652726      -2.22125756
H        -5.99103941      -1.76969501       1.13593451
H        -7.96826694      -3.24438495       1.10558541
H        -9.57870672      -2.57616309       0.84561935
H        -8.74206954      -2.28261007       2.39009077
H        -9.89136166      -0.17108453       0.37305399
H        -8.64185409       2.82976922      -1.37777774
H        -9.29626605       2.92772607       0.27660300
H       -10.07607363       1.89874787      -0.94924868
H        -6.42459242       2.18016974      -0.53696534
