69
lig_098 free ligand  charge=0 uhf=0  ETKDGv3 + MMFF94s  smiles=CCCCCCCCN(CCCCCCCC)C(=O)c1ccc2ccccc2n1
C        -6.80947088      -5.13568458       0.92143898
C        -6.16727647      -4.71100619       2.23266925
C        -6.05290974      -3.19340159       2.39516627
C        -5.23172898      -2.46943395       1.32381954
C        -3.77603963      -2.93537026       1.25427807
C        -2.97549175      -2.10099947       0.25078237
C        -1.51895468      -2.56543819       0.17973266
C        -0.69234662      -1.81705393      -0.87288777
N        -0.53514248      -0.38735167      -0.59483769
C         0.44593020      -0.00712840       0.42766956
C         1.87209280       0.05255680      -0.12804838
C         2.84743976       0.59906196       0.91629793
C         4.26316514       0.81283143       0.37154481
C         4.95321518      -0.48773236      -0.04743072
C         6.43683538      -0.30421568      -0.38286690
C         6.67660071       0.57263046      -1.61256050
C         8.15383471       0.63376814      -1.97019298
C        -1.35257588       0.51461087      -1.29857324
O        -2.25762170       0.12326337      -2.04209280
C        -1.18446391       2.00036142      -1.16024385
C        -2.30259230       2.80829010      -1.32547929
C        -2.14312115       4.18657926      -1.23592432
C        -0.87262042       4.72254205      -0.99698537
C        -0.66213743       6.10896089      -0.90012974
C         0.61611811       6.61166922      -0.66620217
C         1.68564644       5.73393929      -0.53005995
C         1.47229229       4.35570359      -0.62727862
C         0.20943098       3.82717625      -0.85754952
N         0.05976223       2.49496219      -0.93894870
H        -7.78660798      -4.66032857       0.79011455
H        -6.95622672      -6.22050148       0.90928415
H        -6.17998982      -4.87770610       0.06474004
H        -6.77416077      -5.10002221       3.05936362
H        -5.18223703      -5.18077601       2.32725679
H        -7.06169205      -2.76191103       2.40678978
H        -5.61722720      -2.98193401       3.37966476
H        -5.70703382      -2.58575457       0.34303524
H        -5.25338647      -1.39575634       1.54979103
H        -3.31646997      -2.85606295       2.24680879
H        -3.73301544      -3.98936810       0.95793326
H        -3.43645196      -2.18158019      -0.74091081
H        -3.01657754      -1.04667764       0.54733167
H        -1.49648975      -3.63405269      -0.06782592
H        -1.05657055      -2.46370938       1.16802546
H         0.30762141      -2.26106359      -0.93133600
H        -1.14921231      -1.95960940      -1.85886530
H         0.15763591       0.94387723       0.88356521
H         0.40157480      -0.74325488       1.23814754
H         2.18035635      -0.95275807      -0.43573448
H         1.90717361       0.67382504      -1.02966063
H         2.88188318      -0.07663284       1.77950384
H         2.47682650       1.56343658       1.28533320
H         4.21848505       1.50682675      -0.47549313
H         4.85946576       1.30135024       1.15192981
H         4.87487480      -1.21529552       0.76974862
H         4.44246438      -0.92496704      -0.91288385
H         6.96010514       0.11999735       0.48275675
H         6.87233890      -1.29573121      -0.55908491
H         6.31856792       1.59137378      -1.42971513
H         6.11605802       0.17745872      -2.46754178
H         8.73997363       1.05108813      -1.14518471
H         8.30485330       1.26798160      -2.84935445
H         8.54390269      -0.36294972      -2.19982537
H        -3.27743713       2.37391848      -1.52418698
H        -3.00805457       4.83307456      -1.36025570
H        -1.49262524       6.80301364      -1.00820202
H         0.77649715       7.68438518      -0.59291357
H         2.68745226       6.11565752      -0.35018154
H         2.31548566       3.67704772      -0.52279785
