102
lig_055 free ligand  charge=0 uhf=0  ETKDGv3 + MMFF94s  smiles=CCCCCCCCN(C)C(=O)COCC(=O)NCc1cccc(CNC(=O)COCC(=O)N(C)CCCCCCCC)c1
C        -4.82109054       2.92071248       3.32405322
C        -4.54058071       3.20708782       1.85566629
C        -5.42665281       2.39592950       0.90587188
C        -4.76215516       1.14434620       0.31968689
C        -4.40493861       0.08147412       1.35840189
C        -3.77393806      -1.17762585       0.75473738
C        -4.60424205      -1.92742522      -0.29192224
C        -6.01152719      -2.35579334       0.13865871
N        -6.03947937      -3.57922874       0.94684913
C        -5.76580896      -3.45192889       2.36914297
C        -6.18353507      -4.86668965       0.42960531
O        -6.09755432      -5.87129179       1.14255505
C        -6.52024399      -5.02409025      -1.06043659
O        -5.50782219      -4.51682434      -1.91816619
C        -5.86667784      -4.64814266      -3.29262604
C        -4.84157451      -3.97384120      -4.20628436
O        -5.08827281      -3.68715978      -5.37413789
N        -3.62717770      -3.75055586      -3.60630506
C        -2.54321402      -3.08973119      -4.28423560
C        -1.27078354      -3.18739164      -3.48810844
C        -0.34443335      -4.20433539      -3.75154691
C         0.83166586      -4.29936199      -3.00788818
C         1.08849638      -3.38764017      -1.98406504
C         0.16442612      -2.37874526      -1.68417858
C         0.43874634      -1.38933304      -0.58230125
N         0.91364031      -0.13913789      -1.11714214
C         0.12594393       0.97506232      -1.24788439
O        -1.05367028       1.02397405      -0.90823348
C         0.83201978       2.16992816      -1.90399490
O         2.24025731       2.25911486      -1.75141597
C         2.65769907       2.57509118      -0.42584707
C         3.46916508       1.43983505       0.22621392
O         3.57007853       0.34448947      -0.33628814
N         4.06011831       1.69199505       1.46453184
C         4.76509741       0.60089114       2.12672470
C         3.93965128       2.94563666       2.21196085
C         5.24564917       3.73426219       2.37896852
C         5.73187331       4.46316066       1.12137570
C         6.46030525       3.61200398       0.07711125
C         7.72853065       2.89853142       0.55744052
C         8.79512919       3.85100065       1.10307202
C        10.13202078       3.16021294       1.38457913
C        10.05602304       2.12383878       2.49530859
C        -1.01122295      -2.28459131      -2.44568762
H        -4.17630763       3.53911445       3.95674275
H        -5.86075569       3.15577061       3.57448131
H        -4.63869138       1.87456926       3.58056786
H        -4.73591638       4.27330112       1.68622857
H        -3.47934279       3.04511142       1.63606942
H        -5.68918180       3.04263010       0.05846451
H        -6.37310924       2.12628956       1.38949664
H        -3.86055680       1.43620754      -0.23211169
H        -5.45664690       0.72196944      -0.41531171
H        -3.67675619       0.49691478       2.06394594
H        -5.29119887      -0.18253701       1.94501677
H        -3.50739091      -1.85859239       1.56915988
H        -2.82416706      -0.89438611       0.28596352
H        -4.69568061      -1.29075915      -1.18019971
H        -4.02927398      -2.80512669      -0.60825328
H        -6.53346538      -1.56482282       0.68605259
H        -6.60618813      -2.51833488      -0.76455285
H        -6.22056925      -4.27318826       2.93108931
H        -6.17095518      -2.50933358       2.74686179
H        -4.68522688      -3.48757851       2.52616871
H        -7.47622081      -4.52210497      -1.24999090
H        -6.65329910      -6.09407981      -1.26062557
H        -5.91738148      -5.70835126      -3.56183270
H        -6.83532567      -4.16811651      -3.47073544
H        -3.54096019      -3.99080226      -2.62305660
H        -2.41911589      -3.53146410      -5.28004002
H        -2.82212417      -2.04035835      -4.43649243
H        -0.53301663      -4.92590807      -4.54366902
H         1.55077237      -5.08416402      -3.22813095
H         2.01547915      -3.46910206      -1.42047055
H         1.21303627      -1.76912902       0.09360290
H        -0.46308138      -1.23514883       0.01913677
H         1.90150886      -0.07152343      -1.36499088
H         0.36426055       3.09590987      -1.54918400
H         0.63042238       2.09514451      -2.97831961
H         1.80458368       2.81474200       0.21898142
H         3.29946379       3.45663266      -0.50459393
H         4.22602497       0.34579312       3.04413869
H         5.77888312       0.91619837       2.38057902
H         4.82990534      -0.29427528       1.50329651
H         3.18170923       3.59663439       1.77043564
H         3.56021744       2.67818385       3.20621896
H         6.03760870       3.11041339       2.80282124
H         5.04582636       4.50778105       3.13288616
H         4.88051584       4.95944430       0.63966216
H         6.40053523       5.27430480       1.43479412
H         6.72889711       4.26601495      -0.76261726
H         5.77857305       2.86483645      -0.33812400
H         7.46822057       2.15235980       1.31318760
H         8.14544655       2.34326310      -0.29220068
H         8.96913357       4.65188564       0.37408875
H         8.43988296       4.32839487       2.02341596
H        10.50868530       2.68793315       0.46987020
H        10.86420666       3.92472255       1.67075549
H         9.65201408       2.56091882       3.41390191
H        11.05575879       1.73601128       2.71581844
H         9.42766598       1.27508707       2.20994011
H        -1.72727259      -1.49301415      -2.22488039
