70
lig_008 free ligand  charge=0 uhf=0  ETKDGv3 + MMFF94s  smiles=CC(C)CCCCCP(=O)(CC(=O)N(CC(C)C)CC(C)C)c1ccccc1
C         5.10522744      -1.49075758       1.45988205
C         4.44916280      -2.65026157       0.71270336
C         5.49147382      -3.73455803       0.42512458
C         3.77107812      -2.21961996      -0.60307003
C         2.63283654      -1.20539737      -0.43082759
C         3.07475201       0.23771593      -0.70343702
C         1.93283473       1.24400095      -0.53889072
C         1.59289289       1.52910453       0.92046608
P         0.04846926       2.43046419       1.21749203
O        -0.21703339       2.51054721       2.70372027
C        -1.26752752       1.51464413       0.39143667
C        -1.24507822       0.02725667       0.60102739
O        -0.68554332      -0.45862710       1.58312678
N        -1.84617101      -0.78415288      -0.36399263
C        -2.62012034      -0.32144427      -1.52551533
C        -3.88332268       0.51659417      -1.23587750
C        -4.62616817       0.78973681      -2.54793699
C        -4.83088546      -0.13494889      -0.23186067
C        -1.57019117      -2.22833066      -0.27212733
C        -2.62655149      -3.00172803       0.53830239
C        -1.95458027      -4.02060056       1.46290530
C        -3.60735922      -3.72741430      -0.38457109
C         0.18054766       4.04133686       0.45473310
C         0.30260873       5.17090106       1.27758677
C         0.40845262       6.44955697       0.72930261
C         0.39412584       6.61639397      -0.65270771
C         0.27368944       5.50549611      -1.48437021
C         0.16683304       4.22582472      -0.93432951
H         4.35749407      -0.77450598       1.81344386
H         5.64463345      -1.85223137       2.34221665
H         5.82012743      -0.96019660       0.82224977
H         3.68630226      -3.08843163       1.36913049
H         5.03141267      -4.59601998      -0.07047775
H         6.28979177      -3.35638490      -0.22259197
H         5.94900817      -4.09147911       1.35398728
H         3.34237248      -3.11991030      -1.06360006
H         4.51866879      -1.84192911      -1.31165192
H         2.18378096      -1.30712285       0.56228597
H         1.84309166      -1.45385678      -1.15191857
H         3.43781458       0.29916929      -1.73717147
H         3.91274905       0.52446341      -0.06087967
H         2.23138701       2.18412772      -1.01583323
H         1.05041975       0.88876423      -1.08019262
H         2.40487650       2.11569446       1.36708975
H         1.54713952       0.60071888       1.49486161
H        -2.21752950       1.89996604       0.77298350
H        -1.20883688       1.73093300      -0.67592137
H        -2.90970857      -1.19959986      -2.11494900
H        -1.93448823       0.25564317      -2.15758364
H        -3.59560053       1.49081076      -0.83252372
H        -4.97758299      -0.14024398      -3.00784695
H        -5.49673150       1.43168638      -2.37589716
H        -3.97330843       1.29858805      -3.26508283
H        -4.34562447      -0.27743156       0.73781775
H        -5.70751060       0.50044877      -0.06347118
H        -5.19088222      -1.10339247      -0.58916495
H        -1.46202978      -2.63008168      -1.28708696
H        -0.58258054      -2.35239874       0.18962910
H        -3.19252809      -2.30918507       1.17192347
H        -1.36172276      -4.74474945       0.89362980
H        -2.70204614      -4.57369740       2.04158925
H        -1.28859449      -3.51945304       2.17347365
H        -3.09886221      -4.49504511      -0.97839123
H        -4.39342093      -4.21998074       0.19767278
H        -4.09054753      -3.03643677      -1.07952028
H         0.31142670       5.04998622       2.36068004
H         0.50100236       7.31303625       1.38319590
H         0.47719046       7.61212295      -1.08048445
H         0.26481454       5.63717878      -2.56353949
H         0.08017950       3.37869309      -1.60825812
