133
lig_042 free ligand  charge=0 uhf=0  ETKDGv3+randomCoords + MMFF94s  smiles=CCCCCCCCCCCCOc1cc(CNC(=O)COCC(=O)N(CCCC)CCCC)cc(CNC(=O)COCC(=O)N(CCCC)CCCC)c1
C        -0.27938053       4.15588353       5.57422465
C         0.76336116       3.56672415       4.63798750
C         0.63085373       2.04745733       4.53916767
C         1.67221136       1.46090938       3.58433549
C         1.50392956      -0.05236428       3.44139236
C         2.57552640      -0.71211338       2.56712022
C         2.56545679      -0.20328682       1.12467807
C         3.48957826      -0.98320101       0.18393163
C         3.01201918      -2.41736622      -0.05911614
C         3.73036040      -3.12891701      -1.21087490
C         3.52644211      -2.43112180      -2.55577341
C         3.73767093      -3.37943943      -3.73899456
O         3.58463181      -2.70497833      -4.99170023
C         2.33065539      -2.30402833      -5.36373083
C         1.13291297      -2.73192218      -4.79288656
C        -0.09201232      -2.17324626      -5.19155249
C        -1.35035232      -2.53282069      -4.44742794
N        -1.42396215      -1.77608721      -3.22007748
C        -1.93525522      -2.30051357      -2.05551305
O        -2.37502462      -3.44300997      -1.96378698
C        -1.89845738      -1.30567332      -0.88414372
O        -2.43942289      -1.72054336       0.35657221
C        -3.85549897      -1.84238210       0.32674613
C        -4.45610698      -2.15326900       1.70577998
O        -5.39418222      -1.46751720       2.12465163
N        -3.94273642      -3.23050058       2.42916509
C        -3.03499702      -4.22925816       1.84803005
C        -1.60987915      -4.12657235       2.39041960
C        -0.67151106      -5.09416241       1.66994099
C         0.74422193      -5.00249270       2.21566987
C        -4.50052460      -3.52323894       3.74844704
C        -4.37492266      -2.42416781       4.81480654
C        -2.94628447      -2.07774650       5.23691808
C        -2.31483631      -0.98216475       4.39307396
C        -0.10769140      -1.20589453      -6.20320609
C         1.08482702      -0.79223845      -6.81233527
C         1.07893647       0.33548835      -7.81241368
N         1.00215237       1.58963900      -7.10322495
C         2.12384328       2.29652051      -6.73407237
O         3.25732452       2.05784942      -7.13577080
C         1.81536538       3.43770973      -5.76184952
O         0.76808757       3.14336073      -4.83786808
C         1.18435593       2.23231733      -3.81964914
C         0.06502505       2.00494026      -2.79335484
O        -0.52810885       0.91879697      -2.76480038
N        -0.23801548       3.04078652      -1.90586277
C        -1.31626660       2.82784470      -0.93298952
C        -0.84747791       2.06729106       0.31076742
C        -1.98250990       1.74963380       1.28533907
C        -2.54536671       2.98293150       1.97377196
C         0.38739351       4.37112493      -1.93540242
C         1.21781284       4.70856240      -0.69396776
C         2.42947705       3.79181831      -0.52039323
C         3.22621678       4.15510888       0.72281598
C         2.29793549      -1.34988817      -6.38250397
H        -0.16803290       5.24326496       5.62935681
H        -0.17167637       3.75134825       6.58567370
H        -1.29217512       3.93556593       5.22189604
H         0.64867275       4.01628132       3.64467070
H         1.76379220       3.83075881       4.99990904
H        -0.37595354       1.79006652       4.18983522
H         0.75056109       1.60085234       5.53369803
H         2.67964449       1.68799483       3.95286836
H         1.56698236       1.94185535       2.60637118
H         1.53758087      -0.51563877       4.43519576
H         0.51400185      -0.27299513       3.02384167
H         2.39645353      -1.79213248       2.58707473
H         3.56611008      -0.54722555       3.00755381
H         2.88536381       0.84475554       1.11133916
H         1.54367491      -0.22848233       0.72808786
H         4.51156079      -0.99363882       0.58053622
H         3.52273787      -0.43345997      -0.76303395
H         1.93347576      -2.41918493      -0.26180965
H         3.16225830      -3.01060781       0.84989506
H         3.34023611      -4.15288856      -1.26300895
H         4.80229981      -3.20805148      -0.99496965
H         4.21614467      -1.58348528      -2.65161170
H         2.52191498      -1.99698360      -2.59504401
H         4.76959362      -3.74893477      -3.71345517
H         3.09891597      -4.26867321      -3.69009115
H         1.11937741      -3.47150396      -3.99800281
H        -1.38039178      -3.60931832      -4.24508991
H        -2.23851989      -2.28886606      -5.04068961
H        -1.08673427      -0.81011322      -3.21704844
H        -0.84049431      -1.08543270      -0.70303508
H        -2.37823318      -0.37232585      -1.20034796
H        -4.28945280      -0.89205536      -0.00760749
H        -4.17597772      -2.62519607      -0.36765509
H        -3.02518425      -4.14948164       0.75890001
H        -3.45060857      -5.22143857       2.06445654
H        -1.60586728      -4.34508346       3.46400351
H        -1.23340741      -3.10469619       2.27390951
H        -0.65733397      -4.86834864       0.59714797
H        -1.03615265      -6.12174078       1.78190097
H         1.14056613      -3.98880438       2.10471913
H         1.40493275      -5.68751653       1.67537113
H         0.77321430      -5.26767025       3.27730929
H        -5.56529524      -3.74216744       3.59908765
H        -4.04121059      -4.44107810       4.13446583
H        -4.89676037      -2.79814782       5.70592148
H        -4.90995951      -1.51574421       4.52025830
H        -2.97476649      -1.71649635       6.27266292
H        -2.31302514      -2.97054176       5.23902959
H        -2.20107651      -1.28087478       3.35007722
H        -2.91709217      -0.06831179       4.42183029
H        -1.32105485      -0.73960972       4.78188621
H        -1.05000873      -0.74434223      -6.49246686
H         1.97256415       0.30510033      -8.44523702
H         0.20284536       0.26136171      -8.46541518
H         0.12176031       1.85672580      -6.67737657
H         1.49406610       4.29629605      -6.36069152
H         2.72757270       3.72174962      -5.22560543
H         1.42883205       1.26165257      -4.26462615
H         2.07776729       2.59996536      -3.30462530
H        -2.11535547       2.26001881      -1.42461637
H        -1.73888579       3.80116470      -0.66239081
H        -0.06987764       2.62995797       0.83590677
H        -0.37885794       1.12678433       0.00337505
H        -1.60034788       1.06615376       2.05195664
H        -2.79100655       1.22375133       0.76637241
H        -1.75456235       3.54968811       2.47457671
H        -3.04680835       3.64504373       1.26203257
H        -3.28096070       2.68816165       2.72906734
H        -0.42324178       5.10258415      -2.03938273
H         1.01660187       4.49599749      -2.81757012
H         0.58966673       4.67811397       0.20277160
H         1.56711705       5.74463856      -0.78722740
H         3.08143720       3.86903681      -1.39795034
H         2.11092726       2.74687038      -0.44463378
H         2.60883510       4.07348048       1.62279593
H         3.60642108       5.17961126       0.65926023
H         4.08136076       3.48130980       0.83514698
H         3.23687403      -1.00201054      -6.81155571
