168
lig_038 free ligand  charge=0 uhf=0  ETKDGv3+randomCoords + MMFF94s  smiles=CCCCCCCCCCCCN(CCCCCCCCCCCC)C(=O)COCCOCC(=O)N(CCCCCCCCCCCC)CCCCCCCCCCCC
C        -3.06608770      -3.94020877       3.48866817
C        -3.28880923      -5.40977615       3.16445293
C        -2.07020277      -6.07533172       2.52125577
C        -1.81479879      -5.59887299       1.08735654
C        -0.58076994      -6.25663890       0.45850098
C         0.75068310      -5.69809051       0.97737508
C         1.39646497      -4.64984098       0.06471634
C         0.55444607      -3.38917723      -0.13398887
C         1.31211989      -2.34671304      -0.95905682
C         0.43004344      -1.13709089      -1.27636834
C         1.17127625       0.00064601      -1.98135284
C         1.81435926      -0.35192651      -3.32461187
N         0.91353458      -0.18962348      -4.47268497
C         0.08793863      -1.33449660      -4.86934799
C        -1.41820598      -1.09405485      -4.70492677
C        -2.26613071      -2.22309322      -5.30321390
C        -2.14144883      -3.58596107      -4.61257330
C        -2.59469316      -3.62719317      -3.14938016
C        -4.07856603      -3.30018666      -2.96859244
C        -4.56630380      -3.46207687      -1.52555671
C        -3.88243715      -2.57078506      -0.48281346
C        -3.98307282      -1.07592690      -0.79357193
C        -3.36680745      -0.18966763       0.29334834
C        -4.07747363      -0.20949903       1.64867338
C        -5.51518153       0.28121957       1.58813311
C         0.89765224       0.94778354      -5.29529332
O         0.22068756       0.99355545      -6.32470796
C         1.76943389       2.13765128      -4.84991698
O         1.61107610       3.31458247      -5.63331956
C         2.14139017       4.49069214      -5.01256401
C         3.65855656       4.43576223      -4.80232494
O         3.94485590       3.64529543      -3.64299553
C         5.34170709       3.47467299      -3.43950838
C         5.64148909       2.51265924      -2.28079043
O         6.29281880       1.48533835      -2.49448092
N         5.18872870       2.84450283      -1.00193238
C         4.39015619       4.03888114      -0.69933181
C         2.88093396       3.77477301      -0.72862057
C         2.27829717       3.74410083       0.67673614
C         0.81618125       3.29666452       0.65179330
C         0.22607526       3.27012102       2.06285972
C        -1.19952746       2.71440160       2.11793689
C        -2.23992773       3.45765299       1.27483496
C        -2.37826159       4.93795734       1.63726913
C        -3.49985952       5.59886771       0.83222249
C        -3.74687411       7.06068043       1.21738779
C        -2.55832158       8.00754824       1.03308393
C        -2.04442367       8.06913376      -0.39672491
C         5.47428712       1.90561611       0.08886360
C         4.51416675       0.71194368       0.10670021
C         4.95156218      -0.41961232       1.04194839
C         5.10733938      -0.04725725       2.51937453
C         3.86429116       0.54179462       3.18814322
C         2.63315808      -0.36955618       3.24419107
C         2.79259462      -1.56253872       4.19531719
C         3.06426387      -2.87995001       3.46594034
C         3.44328147      -4.02893373       4.40729504
C         2.44097439      -4.34389215       5.52170390
C         1.07751567      -4.79798117       5.00282787
C         0.14069408      -5.15669641       6.14629967
H        -3.94438369      -3.53000430       3.99722653
H        -2.89879308      -3.34890960       2.58491477
H        -2.20236291      -3.80998712       4.14806142
H        -3.52203275      -5.93724954       4.09708376
H        -4.16336302      -5.51457019       2.51210038
H        -2.23729110      -7.15953321       2.50672962
H        -1.19046262      -5.90269241       3.14929752
H        -2.69029063      -5.84960494       0.47576638
H        -1.71164805      -4.51166770       1.06039998
H        -0.61751730      -7.33404991       0.66293961
H        -0.63037055      -6.15138946      -0.63192796
H         0.64228354      -5.28370232       1.98398785
H         1.45865134      -6.53237008       1.06213726
H         1.60934424      -5.10420691      -0.91101484
H         2.36609255      -4.37196200       0.49659670
H        -0.37496691      -3.64514966      -0.65346773
H         0.28433150      -2.96218031       0.83908026
H         1.65246323      -2.81700100      -1.88734985
H         2.20393473      -2.02248181      -0.41023567
H         0.02031037      -0.74144949      -0.33878538
H        -0.42350466      -1.45336423      -1.87822633
H         1.96320711       0.34034082      -1.30577572
H         0.48628787       0.84835636      -2.10347898
H         2.23024046      -1.36288507      -3.34746584
H         2.67883827       0.30426731      -3.45725518
H         0.31139938      -1.54915043      -5.92167396
H         0.39624341      -2.21037068      -4.28935141
H        -1.66967920      -0.93644422      -3.65237062
H        -1.70411335      -0.16569137      -5.21252372
H        -3.31602634      -1.90898444      -5.30784016
H        -1.99051555      -2.34693870      -6.35839635
H        -1.10316301      -3.93248932      -4.66882133
H        -2.73229409      -4.31425748      -5.18255582
H        -2.40256391      -4.63478516      -2.75974801
H        -1.98069534      -2.94560877      -2.55684470
H        -4.29262864      -2.28302549      -3.31163805
H        -4.67053620      -3.97011907      -3.60475972
H        -5.64503390      -3.26215314      -1.50366807
H        -4.44219672      -4.50909002      -1.22210245
H        -4.35183613      -2.78166727       0.48437557
H        -2.82879134      -2.85276335      -0.38391522
H        -3.44736794      -0.86522174      -1.72639072
H        -5.02783808      -0.79607897      -0.96658959
H        -3.34605401       0.84221827      -0.07798621
H        -2.32134302      -0.48373525       0.44427750
H        -4.05340970      -1.21379690       2.08224181
H        -3.52040793       0.43551909       2.33866699
H        -5.57309092       1.27439061       1.13168797
H        -5.93148553       0.34836906       2.59844349
H        -6.14808279      -0.40264543       1.01516473
H         2.81060044       1.81361393      -4.94144416
H         1.52418014       2.35856774      -3.80550637
H         1.61391795       4.66536470      -4.06772766
H         1.90810157       5.32047397      -5.68743608
H         4.14590906       3.99491316      -5.67894797
H         4.04331036       5.44694142      -4.63226394
H         5.82277286       4.43819717      -3.23970257
H         5.79126761       3.04835625      -4.34439946
H         4.62294188       4.81801899      -1.43015300
H         4.71741568       4.43768192       0.26794286
H         2.65783989       2.84345945      -1.26154291
H         2.39152441       4.58280897      -1.28700201
H         2.35068123       4.74334261       1.12376962
H         2.85423628       3.07078448       1.31631083
H         0.74555192       2.29667916       0.20791349
H         0.24336548       3.97891463       0.01393045
H         0.25467761       4.27602480       2.49724091
H         0.85785194       2.64252409       2.70415249
H        -1.52904966       2.71098535       3.16443091
H        -1.18093485       1.66494655       1.79886860
H        -3.20853718       2.96346349       1.41977905
H        -2.00037843       3.35617015       0.20997027
H        -2.58680516       5.03663770       2.70913707
H        -1.43349655       5.45285410       1.43719854
H        -3.28178997       5.52472460      -0.23945246
H        -4.43257925       5.04396699       0.99471263
H        -4.59174328       7.43484958       0.62564085
H        -4.06435954       7.10289034       2.26674985
H        -2.87183614       9.01457369       1.33419577
H        -1.73938741       7.72761292       1.70465168
H        -2.84980036       8.32200744      -1.09343451
H        -1.26791802       8.83592160      -0.48384093
H        -1.60408968       7.11657125      -0.70591336
H         5.44450509       2.44839213       1.03945532
H         6.50105491       1.54160140      -0.03843233
H         3.50636569       1.04362997       0.37219241
H         4.43200513       0.29305707      -0.90389508
H         5.91094711      -0.81676756       0.68668820
H         4.23407030      -1.24183198       0.94560090
H         5.92633003       0.67558417       2.61898530
H         5.43162431      -0.93600787       3.07329241
H         3.58716253       1.46967063       2.68001975
H         4.13076638       0.83828662       4.21082862
H         1.80469377       0.24435557       3.62179266
H         2.33341184      -0.69311659       2.24139776
H         3.57913926      -1.36553626       4.93304075
H         1.85661027      -1.66879214       4.75736631
H         2.18534821      -3.15656420       2.87275395
H         3.88610382      -2.75040882       2.75426441
H         4.40875218      -3.79335556       4.87276679
H         3.60526789      -4.93201895       3.80563457
H         2.32162097      -3.47493598       6.17887197
H         2.86696379      -5.14086910       6.14451093
H         1.20244918      -5.67330328       4.35564254
H         0.61295082      -4.00879359       4.40225365
H         0.55580215      -5.96638141       6.75487525
H        -0.03359968      -4.29263649       6.79538362
H        -0.82626022      -5.48842285       5.75572737
