57
lig_146 free ligand  charge=0 uhf=0  ETKDGv3 + MMFF94s  smiles=CCN(C(=O)c1cccc(C(=O)N(CC)c2ccc(C)cc2)n1)c1ccc(C)cc1
C        -3.27984483      -1.41729240       2.23590338
C        -2.42777631      -0.49068543       1.37669999
N        -2.78713558      -0.57723116      -0.05134639
C        -2.33099687      -1.65125730      -0.85341429
O        -2.88735235      -2.05115530      -1.87912503
C        -1.11107976      -2.41374077      -0.44904132
C        -1.10936775      -3.79855859      -0.57749021
C         0.05260420      -4.48978779      -0.25595834
C         1.17197864      -3.77521571       0.16111661
C         1.09846601      -2.38427917       0.22928117
C         2.29907615      -1.62996451       0.71880738
O         2.95620969      -2.21907616       1.58342663
N         2.61716979      -0.34326689       0.21552784
C         1.84991935       0.32490946      -0.85801250
C         2.08165493      -0.32292286      -2.21901115
C         3.79762022       0.34008700       0.68815310
C         3.81042290       1.73341216       0.85234231
C         4.95840358       2.40458961       1.29270853
C         6.13012105       1.69893269       1.57174624
C         7.34908376       2.40972614       2.07786221
C         6.12393409       0.30987251       1.43271870
C         4.97351020      -0.35774611       0.99405031
N        -0.02804807      -1.69346772      -0.06249270
C        -3.73389434       0.38401096      -0.57772546
C        -4.54362434       1.16639559       0.26184124
C        -5.44051313       2.11329185      -0.25364088
C        -5.54216282       2.32173766      -1.62878304
C        -6.52560314       3.30677178      -2.18453983
C        -4.74889788       1.55156115      -2.47828837
C        -3.85465273       0.60580293      -1.95801063
H        -3.00215696      -1.31657892       3.28970929
H        -4.34603866      -1.19136867       2.14102644
H        -3.13749416      -2.46362349       1.94678905
H        -2.49321821       0.54522776       1.72590698
H        -1.38368281      -0.75939479       1.53339384
H        -1.99378949      -4.32414042      -0.92540252
H         0.08860146      -5.57337378      -0.33230478
H         2.08873499      -4.29387135       0.42818955
H         2.13693540       1.37425145      -0.96181794
H         0.78981708       0.34903124      -0.60163645
H         1.77188779      -1.37052839      -2.24233973
H         1.51749422       0.21088948      -2.99033859
H         3.14284213      -0.28656572      -2.48750867
H         2.91417182       2.32647922       0.69592189
H         4.92261645       3.48347958       1.42628908
H         7.40411331       3.42633382       1.67447243
H         8.26140301       1.88853785       1.76919371
H         7.32458742       2.46356505       3.17057987
H         7.01441026      -0.27110145       1.66208241
H         5.03236632      -1.43595371       0.87277494
H        -4.53155102       1.04918103       1.34012542
H        -6.06168006       2.68285477       0.43426053
H        -6.16474415       3.72921187      -3.12824687
H        -7.48769322       2.81622697      -2.36143302
H        -6.67602448       4.14168980      -1.49205324
H        -4.81125947       1.67831325      -3.55688391
H        -3.23987364       0.06577397      -2.67273746
