74
lig_017 free ligand  charge=0 uhf=0  ETKDGv3 + MMFF94s  smiles=CC12CCC(c3nnc(-c4cccc(-c5cccc(-c6nnc7c(n6)C6(C)CCC7C6(C)C)n5)n4)nc31)C2(C)C
C        -8.32820382       1.17472990       0.00838734
C        -7.72973425       1.35733305      -1.36744581
C        -8.19679550       0.32576004      -2.43662035
C        -7.77626285       0.99048575      -3.78550041
C        -7.11927389       2.32064826      -3.33908342
C        -5.84514471       1.89672531      -2.63590930
N        -4.58150494       1.97270206      -3.03553667
N        -3.65673243       1.44537036      -2.17878138
C        -4.04515678       0.86494211      -0.99408871
C        -2.98699537       0.30899552      -0.11672861
C        -3.28538109      -0.30067657       1.10282424
C        -2.25373431      -0.80519980       1.88683953
C        -0.94245207      -0.69218119       1.43963281
C        -0.68663075      -0.07631617       0.21585210
C         0.68701171       0.07786900      -0.32099775
C         0.94289684       0.69407633      -1.54458223
C         2.25420344       0.80712284      -1.99172188
C         3.28580580       0.30228500      -1.20783733
C         2.98734923      -0.30772944       0.01151585
C         4.04540560      -0.86399468       0.88879734
N         3.65685348      -1.44412300       2.07360177
N         4.58147471      -1.97174729       2.93032086
C         5.84510042      -1.89638284       2.53053584
C         6.20194844      -1.30630073       1.33045063
N         5.33807640      -0.76453315       0.47080648
C         7.72980270      -1.35803249       1.26180193
C         8.32820923      -1.17591813      -0.11412813
C         8.19753736      -0.32660049       2.33081490
C         7.77677925      -0.99095087       3.67980982
C         7.11909734      -2.32085012       3.23360993
C         7.97672722      -2.72812302       1.99096147
C         7.44741228      -3.97603485       1.24323064
C         9.45244497      -3.02791874       2.32606817
N         1.69872612      -0.41566416       0.44473706
N        -1.69839205       0.41692099      -0.55001889
N        -5.33783068       0.76488389      -0.57625165
C        -6.20185024       1.30636089      -1.43592475
C        -7.97725174       2.72736377      -2.09648541
C        -9.45307972       3.02646499      -2.43173319
C        -7.44863298       3.97547916      -1.34859978
H        -7.94502338       1.91853230       0.71501303
H        -9.41885459       1.26400349      -0.01809853
H        -8.08500526       0.18604430       0.41333250
H        -9.27983823       0.16438668      -2.40915101
H        -7.71414209      -0.65140005      -2.31462374
H        -8.65367903       1.16696166      -4.41628971
H        -7.08755810       0.34660215      -4.34476188
H        -6.98546171       3.07694099      -4.11348993
H        -4.31294545      -0.38501526       1.44527753
H        -2.46735126      -1.28288609       2.83880631
H        -0.12716968      -1.08260604       2.04352583
H         0.12765377       1.08481579      -2.14832972
H         2.46787334       1.28511729      -2.94352147
H         4.31338755       0.38665747      -1.55022994
H         9.41882090      -1.26572566      -0.08775723
H         7.94459218      -1.91964953      -0.82059432
H         8.08544260      -0.18718456      -0.51921396
H         9.28067062      -0.16584067       2.30321427
H         7.71541380       0.65081304       2.20874821
H         8.65414627      -1.16776545       4.31057361
H         7.08842170      -0.34666677       4.23903817
H         6.98500728      -3.07696385       4.00814123
H         6.40936287      -3.89233117       0.90835350
H         7.50327494      -4.85897096       1.89045637
H         8.05141947      -4.17742360       0.35119724
H         9.52326746      -3.90591254       2.97852725
H         9.97615705      -2.21499404       2.83320531
H        10.01950993      -3.24465256       1.41359310
H       -10.02026074       3.24321750      -1.51934212
H        -9.52423054       3.90424242      -3.08444609
H        -9.97644056       2.21319068      -2.93866738
H        -7.50458792       4.85834148      -1.99591904
H        -6.41067981       3.89216283      -1.01334241
H        -8.05301578       4.17671724      -0.45678527
