92
lig_054 free ligand  charge=0 uhf=0  ETKDGv3 + MMFF94s  smiles=CCCCCCCCN(C)C(=O)COCC(=O)N(CCCCCCCC)CCCCCCCC
C        11.29133208      -1.08568000      -1.90240215
C        10.32767674      -1.42403208      -0.77568705
C        10.36553033      -0.42277101       0.38127422
C         9.99752981       1.01970034       0.01951337
C         8.61742729       1.21176995      -0.61726174
C         7.42933176       0.68363431       0.19371314
C         7.27360749       1.36363893       1.55692525
C         6.07319600       0.83959247       2.35385510
N         4.78460423       1.14804836       1.73588528
C         4.25710869       2.48874212       1.93784223
C         4.08505068       0.12574752       1.09559548
O         4.58626752      -0.98621241       0.90392217
C         2.67759757       0.43273146       0.55781736
O         1.80241594       0.98381093       1.53555963
C         0.51080456       1.27297396       1.01441469
C        -0.40463655       0.06874143       0.70468486
O        -0.09609906      -1.06363965       1.08548445
N        -1.58000854       0.29756169      -0.02046237
C        -2.37810352      -0.88463985      -0.37362382
C        -3.22412466      -1.41983107       0.78417498
C        -3.95535843      -2.70436231       0.38522089
C        -4.81827356      -3.22944145       1.53474728
C        -5.48934759      -4.57139020       1.22853017
C        -6.53124101      -4.48943535       0.11070814
C        -7.25121780      -5.82607539      -0.07359314
C        -8.28557653      -5.75301195      -1.18556624
C        -1.97208069       1.58796493      -0.60173688
C        -2.53522502       2.61940265       0.38136016
C        -3.86401099       2.26316783       1.04969638
C        -5.02709978       1.94944690       0.10442593
C        -5.39822104       3.11771516      -0.81125944
C        -6.63047176       2.78782470      -1.65667110
C        -7.00128041       3.95092208      -2.57639827
C        -8.22522489       3.62701904      -3.41812295
H        11.00771421      -0.15803795      -2.40801806
H        12.31339442      -0.97707097      -1.52605578
H        11.28931828      -1.88470523      -2.65077205
H        10.58774588      -2.41411662      -0.38191120
H         9.31184565      -1.50870966      -1.17643797
H        11.37428531      -0.42100479       0.81350600
H         9.70019753      -0.78046786       1.17591035
H        10.75303861       1.42568974      -0.66403970
H        10.06741666       1.63277771       0.92601553
H         8.60459103       0.73390759      -1.60407360
H         8.47039071       2.28353459      -0.80179882
H         7.51508066      -0.40063642       0.32596596
H         6.52403676       0.85255129      -0.40148371
H         8.17186437       1.18855197       2.15948412
H         7.19142501       2.44730848       1.41602174
H         6.17717931      -0.24197800       2.49663479
H         6.07342254       1.28669801       3.35533621
H         3.55653429       2.76956113       1.14947601
H         3.74949502       2.51797105       2.90621329
H         5.07361800       3.21575176       1.93750295
H         2.26357258      -0.50743885       0.17776275
H         2.78662353       1.12454259      -0.28573730
H         0.62561245       1.91065552       0.13421580
H         0.00552971       1.85597075       1.78925226
H        -3.01933115      -0.65243347      -1.23100118
H        -1.68681734      -1.66803017      -0.70959634
H        -3.96003855      -0.67040767       1.08680533
H        -2.59499509      -1.61303466       1.66049845
H        -3.22393799      -3.46833470       0.09558009
H        -4.58034469      -2.50140438      -0.49151598
H        -5.58272219      -2.48672048       1.79367706
H        -4.18911475      -3.35772483       2.42437888
H        -4.72513613      -5.31422186       0.96935634
H        -5.97594123      -4.92624426       2.14562742
H        -6.04946259      -4.20999692      -0.83285638
H        -7.26343103      -3.70778435       0.34655457
H        -6.52363186      -6.61123150      -0.30998207
H        -7.74789579      -6.11400387       0.86026986
H        -9.04647030      -4.99769866      -0.96449561
H        -8.78832170      -6.71849248      -1.29957816
H        -7.81663797      -5.49921698      -2.14161013
H        -1.08436324       2.01637424      -1.07885466
H        -2.68098322       1.42028394      -1.41928037
H        -2.65353545       3.56898331      -0.15483933
H        -1.80932302       2.82298722       1.17348731
H        -4.15630218       3.10207417       1.69456516
H        -3.70872014       1.41537818       1.72470123
H        -4.79846562       1.06577597      -0.50052590
H        -5.89819355       1.68470729       0.71703771
H        -5.59602155       4.01087384      -0.20651371
H        -4.56063067       3.35374834      -1.47714482
H        -7.47680758       2.55599216      -0.99863566
H        -6.43381194       1.89187846      -2.25814399
H        -7.20240634       4.84818871      -1.97961538
H        -6.16027787       4.18409803      -3.23976096
H        -8.04554163       2.75238147      -4.05141907
H        -9.09360724       3.42025757      -2.78448476
H        -8.47258977       4.47205850      -4.06822052
