80
lig_011 free ligand  charge=0 uhf=0  ETKDGv3 + MMFF94s  smiles=CC1(C)CCC(C)(C)c2nc(-c3ccc4ccc5ccc(-c6nnc7c(n6)C(C)(C)CCC7(C)C)nc5c4n3)nnc21
C        -4.99451302       3.66961971       1.27432783
C        -5.25277698       2.92973920      -0.05437392
C        -4.57997080       3.72499709      -1.19303393
C        -6.76752968       2.87448321      -0.35106036
C        -7.47892780       1.83620684       0.50916514
C        -6.93503659       0.41073997       0.26497613
C        -7.46036295      -0.49107434       1.40257919
C        -7.46235773      -0.14142248      -1.07554908
C        -5.41164573       0.38623995       0.22643924
N        -4.82862744      -0.83634397       0.32647659
C        -3.47630141      -0.88097422       0.27172343
C        -2.81845641      -2.20343163       0.38519153
C        -3.55471702      -3.37219567       0.54839424
C        -2.88894315      -4.58745166       0.64996063
C        -1.49344044      -4.62633709       0.58763672
C        -0.82478093      -5.84914685       0.68985864
C         0.55950176      -5.88739087       0.62786332
C         1.28271658      -4.70304082       0.46326861
C         2.67822317      -4.74126366       0.40067260
C         3.39820814      -3.56430810       0.23690441
C         2.71582478      -2.35638651       0.13685084
C         3.43274621      -1.07197679      -0.03880043
N         2.72166162       0.06903456      -0.12797873
N         3.37251187       1.25736556      -0.29475716
C         4.71901707       1.27913615      -0.37516995
C         5.42327189       0.08691749      -0.25836646
N         4.78508065      -1.10182034      -0.10269648
C         6.94324472       0.02759098      -0.35303242
C         7.51572940      -0.90220193       0.73833724
C         7.32033746      -0.55213832      -1.73204041
C         7.58371164       1.42088134      -0.16343851
C         6.85782664       2.49710087      -0.96276602
C         5.38013820       2.63544532      -0.53516831
C         5.27997138       3.38786191       0.80772363
C         4.65495073       3.46698137      -1.61419100
N         1.35604304      -2.32185755       0.19826839
C         0.62593366      -3.45539234       0.35775752
C        -0.78095212      -3.41651188       0.42087686
N        -1.45879751      -2.24404557       0.32474727
N        -2.71407005       0.21969126       0.11996142
N        -3.31066630       1.44262299       0.01013323
C        -4.65580027       1.53854054       0.04781688
H        -5.40457807       3.12685327       2.13308192
H        -3.92088583       3.79460652       1.46044781
H        -5.44346186       4.66930473       1.26376567
H        -3.50972744       3.87626454      -1.00992674
H        -4.67645190       3.20325254      -2.15263599
H        -5.03514608       4.71615620      -1.30279938
H        -7.22263174       3.85909906      -0.18380953
H        -6.93956791       2.64129491      -1.40950244
H        -8.55639112       1.87054628       0.30305307
H        -7.36744060       2.10932856       1.56616853
H        -7.05371329      -0.18286299       2.37311606
H        -8.55371483      -0.44589048       1.46708320
H        -7.18648304      -1.54196649       1.25256788
H        -7.07997170       0.42494575      -1.93178753
H        -7.16054128      -1.18527985      -1.22461001
H        -8.55711481      -0.10863364      -1.11321791
H        -4.63948753      -3.34397418       0.59708106
H        -3.47007535      -5.49758315       0.77753119
H        -1.37580873      -6.77835900       0.81816136
H         1.06774552      -6.84586814       0.70871617
H         3.21738673      -5.68233589       0.47824385
H         4.48289503      -3.59602792       0.18850093
H         8.61136269      -0.91719862       0.70701321
H         7.17262394      -1.93638881       0.61743765
H         7.21290869      -0.57248140       1.73927210
H         6.89616309       0.03479780      -2.55406362
H         8.40775761      -0.57955600      -1.86529365
H         6.94990276      -1.57776146      -1.84967020
H         7.58015659       1.69922561       0.89806569
H         8.63930285       1.39601640      -0.46292803
H         6.92361263       2.25527945      -2.03115733
H         7.37909813       3.45512197      -0.84018956
H         5.73315890       2.82305425       1.62979430
H         5.78038149       4.36135742       0.75359360
H         4.23519221       3.57160195       1.08626864
H         4.63841407       2.94110968      -2.57623657
H         3.61472403       3.67680829      -1.33901075
H         5.15242981       4.43165914      -1.76761304
