144
lig_088 free ligand  charge=0 uhf=0  ETKDGv3 + MMFF94s  smiles=CCCCCCCCN(CCCCCCCC)C(=O)COCC(=O)NCc1cccc(CNC(=O)COCC(=O)N(CCCCCCCC)CCCCCCCC)c1
C        14.93171245       3.13758480      -4.29617049
C        13.81877095       3.48870707      -3.32034052
C        13.24989024       2.23722303      -2.65097158
C        12.20718300       2.54220993      -1.57100551
C        10.92252400       3.16315579      -2.12439227
C         9.86453362       3.41866922      -1.04599409
C         9.25599876       2.16962167      -0.39959754
C         8.49317817       1.28585846      -1.39377082
N         7.71625128       0.23190484      -0.73270970
C         8.25691641      -1.13271562      -0.73946058
C         9.28414346      -1.37610969       0.37078091
C        10.71854483      -1.36910411      -0.16600167
C        11.77656412      -1.57692900       0.92103779
C        11.91868621      -0.37768534       1.86261467
C        13.04576597      -0.59973084       2.87455836
C        13.30811955       0.61698698       3.76485339
C        12.14698527       0.95860594       4.68578288
C         6.51753115       0.60289507      -0.11568208
O         6.09175270       1.75947370      -0.16873597
C         5.73906709      -0.49314942       0.64354454
O         4.63274217      -0.04557720       1.42067963
C         3.48310651       0.24200411       0.62422026
C         2.63342290      -1.00445785       0.36058077
O         2.01665177      -1.18066373      -0.68552690
N         2.60758469      -1.87747365       1.42455839
C         1.81653855      -3.08253157       1.43325157
C         0.54228232      -2.88100705       2.21036179
C         0.43479919      -3.31103301       3.53921820
C        -0.74700500      -3.10983762       4.25268081
C        -1.82803769      -2.46754266       3.64961970
C        -1.73622136      -2.00983960       2.32863841
C        -2.91070320      -1.32889660       1.67785963
N        -3.83993231      -2.30229894       1.16112011
C        -5.03427438      -2.60044188       1.77598297
O        -5.43927390      -2.04812604       2.79392181
C        -5.80730012      -3.72342887       1.07767480
O        -5.68322285      -3.67816888      -0.34351707
C        -6.56184711      -2.72798943      -0.93759473
C        -8.05702491      -3.11079326      -0.98007408
O        -8.43177692      -4.23716375      -0.64567060
N        -8.95660966      -2.13206909      -1.40430810
C        -8.57869432      -0.78662364      -1.84468727
C        -8.66400852       0.22635393      -0.70097535
C        -8.22558205       1.61782605      -1.15829963
C        -8.31394807       2.63155668      -0.01492230
C        -7.88639086       4.02442717      -0.47489467
C        -7.78515037       5.05735822       0.65290485
C        -9.10937744       5.37550638       1.35311162
C        -9.31267872       4.58810516       2.63968948
C       -10.38359568      -2.46485701      -1.42146490
C       -10.80891539      -3.04036747      -2.77210264
C       -12.25952166      -3.53278762      -2.81478263
C       -13.30780396      -2.43516013      -2.59514724
C       -13.82059475      -2.38473261      -1.15205939
C       -14.88587832      -1.30753677      -0.92599804
C       -14.33394412       0.11580683      -1.02159255
C       -15.39764293       1.14698244      -0.67652664
C        -0.54890277      -2.22784115       1.61522983
H        15.75983712       2.63735571      -3.78399813
H        15.32274128       4.04485917      -4.76724476
H        14.56532438       2.47484810      -5.08667776
H        14.21097730       4.17326528      -2.55951130
H        13.03213059       4.02117770      -3.86513646
H        14.07025785       1.67813158      -2.18360182
H        12.81139595       1.57713192      -3.40933789
H        11.97205145       1.60144823      -1.06495204
H        12.64387817       3.20599641      -0.81507280
H        10.51120150       2.53272212      -2.92011508
H        11.15934977       4.12897274      -2.58557306
H         9.05492202       4.01162096      -1.48999501
H        10.30326135       4.04214510      -0.25696351
H         8.57448803       2.50574934       0.39151088
H        10.02870679       1.58796388       0.11096270
H         9.17793981       0.82270741      -2.11156786
H         7.79590967       1.90579028      -1.97052178
H         8.66838000      -1.33937996      -1.73424730
H         7.43454142      -1.84098212      -0.60836698
H         9.15659212      -0.64431224       1.17490287
H         9.09576462      -2.36428497       0.80920985
H        10.92207238      -0.43977423      -0.70536339
H        10.81986309      -2.17981342      -0.89882634
H        12.74017913      -1.75665647       0.42812611
H        11.54323303      -2.47986598       1.49805074
H        12.12681454       0.52544810       1.27720735
H        10.97690583      -0.21248313       2.39456682
H        13.97205698      -0.83425351       2.33551678
H        12.81486594      -1.47067090       3.50000127
H        13.54966417       1.48793115       3.14448507
H        14.19202019       0.41190487       4.38059268
H        12.43191589       1.76967347       5.36368469
H        11.27159640       1.29258515       4.12120235
H        11.85949312       0.09474342       5.29330321
H         6.43337697      -0.96123119       1.34892299
H         5.40686574      -1.25828494      -0.06678384
H         3.75008634       0.70844095      -0.32931110
H         2.85943787       0.94451161       1.18682021
H         3.12950254      -1.61796763       2.25451768
H         1.58811984      -3.40216717       0.41017965
H         2.42621997      -3.86991620       1.88990356
H         1.26864999      -3.81001954       4.02720774
H        -0.82853450      -3.45465988       5.28034170
H        -2.74913538      -2.32356450       4.21278037
H        -3.40430044      -0.65957054       2.39138957
H        -2.57905589      -0.71335514       0.83435790
H        -3.58948506      -2.83589019       0.33585107
H        -5.37445505      -4.67091956       1.41550938
H        -6.85479861      -3.69729792       1.39435429
H        -6.23518714      -2.61982513      -1.97754671
H        -6.43579103      -1.75901949      -0.44508527
H        -7.56396169      -0.80231722      -2.25242457
H        -9.24172018      -0.49293708      -2.66672125
H        -9.69158329       0.27162313      -0.32044921
H        -8.03734572      -0.10170258       0.13696217
H        -8.85822709       1.94733054      -1.99147061
H        -7.19515345       1.57334909      -1.53138938
H        -7.67716898       2.30399226       0.81539997
H        -9.34620019       2.66262370       0.35034059
H        -6.90350799       3.95684508      -0.95819199
H        -8.58446578       4.38747237      -1.23942317
H        -7.41389971       5.98621493       0.20058797
H        -7.02560036       4.74646088       1.38006045
H        -9.95692984       5.21760487       0.67683646
H        -9.11335204       6.44048740       1.61679945
H        -8.50575693       4.79017260       3.35161432
H        -9.34681997       3.51096916       2.46168466
H       -10.25643964       4.87927428       3.11202360
H       -10.59585264      -3.19118332      -0.62872446
H       -10.94647393      -1.55552333      -1.18912445
H       -10.65651087      -2.29038111      -3.55813801
H       -10.15463311      -3.88324740      -3.02893409
H       -12.39866271      -4.35484841      -2.10279856
H       -12.42295716      -3.95999943      -3.81263808
H       -14.16481696      -2.64390991      -3.24826580
H       -12.90609138      -1.46604847      -2.90838015
H       -12.99645810      -2.23036095      -0.44891677
H       -14.26267162      -3.35778955      -0.90314111
H       -15.70467636      -1.43939863      -1.64364172
H       -15.31485638      -1.45663470       0.07283469
H       -13.48495561       0.23337551      -0.33823132
H       -13.96777412       0.31696874      -2.03367109
H       -16.24979079       1.07488263      -1.35988955
H       -15.76335587       1.00704853       0.34572473
H       -14.98458915       2.15763774      -0.75359275
H        -0.46397641      -1.88316243       0.58471479
