69
lig_006 free ligand  charge=0 uhf=0  ETKDGv3 + MMFF94s  smiles=CC(C)(C)c1ccc(NCC(=O)c2cccc(C(=O)CNc3ccc(C(C)(C)C)cc3)n2)cc1
C        -2.11899225       1.74838786      -2.88720047
C        -3.07635532       0.68938632      -2.29612644
C        -2.56442482      -0.71846897      -2.66647494
C        -4.44511314       0.88245976      -2.98684218
C        -3.13308656       0.81285963      -0.76499723
C        -1.95119658       0.78761548      -0.00730915
C        -1.96763980       0.87662405       1.39239409
C        -3.16390276       0.98064526       2.09924976
N        -3.24254140       1.10281594       3.47429371
C        -2.13692826       0.84095505       4.38976516
C        -2.08158673      -0.64087197       4.73980070
O        -3.07190266      -1.25259913       5.14889160
C        -0.77857168      -1.35271770       4.60838247
C        -0.71893822      -2.71337645       4.89778824
C         0.50478291      -3.36621578       4.79011022
C         1.62600189      -2.64486046       4.39597370
C         1.47870509      -1.29003385       4.11734671
C         2.66746132      -0.50279938       3.68899581
O         3.79610092      -0.97313804       3.84192865
C         2.41597757       0.88331899       3.10839312
N         3.33190601       1.16617053       2.00860644
C         3.15648200       0.73462406       0.70706434
C         4.11203656       1.08246045      -0.25097314
C         3.96826372       0.72393549      -1.59817773
C         2.84883692       0.00774249      -2.05146079
C         2.71499244      -0.36561506      -3.53662858
C         1.41286842      -1.12586274      -3.87447830
C         3.89532218      -1.26994162      -3.95074040
C         2.72834616       0.91522692      -4.39931904
C         1.88761973      -0.33083977      -1.09045800
C         2.03572674       0.03634578       0.25771592
N         0.29958391      -0.62467162       4.22241047
C        -4.34137192       1.03228877       1.34695073
C        -4.33214219       0.94050566      -0.05357491
H        -1.08369522       1.60507461      -2.55948187
H        -2.11125055       1.70617443      -3.98278334
H        -2.42195991       2.76058532      -2.59441286
H        -1.56171657      -0.90902460      -2.26866678
H        -3.22623124      -1.49692755      -2.26845939
H        -2.51301050      -0.84787264      -3.75377199
H        -4.87260258       1.86676401      -2.76275013
H        -5.16729464       0.11819462      -2.67706213
H        -4.35149865       0.80861517      -4.07699740
H        -0.98480243       0.70352431      -0.49762204
H        -1.01139352       0.86959760       1.90270194
H        -4.16659800       1.00539250       3.88523421
H        -2.33537191       1.36946921       5.33014393
H        -1.19349523       1.24575775       4.01937946
H        -1.60797017      -3.25871372       5.20384603
H         0.58317272      -4.42795108       5.01106203
H         2.59288926      -3.13234254       4.30276041
H         1.38108375       1.03350997       2.79143194
H         2.60669322       1.60140358       3.91429732
H         4.27988309       1.40598986       2.28152185
H         4.99222933       1.64972547       0.04235300
H         4.75287185       1.02306219      -2.28945222
H         1.36387563      -1.37112210      -4.94221954
H         1.34116302      -2.07100628      -3.32393189
H         0.52627481      -0.52540977      -3.64150712
H         3.92956076      -2.17894530      -3.33849577
H         4.86142025      -0.76461316      -3.84300218
H         3.80903281      -1.57722098      -4.99954051
H         2.59634242       0.67773754      -5.46145309
H         3.67100172       1.46609054      -4.31001569
H         1.91997098       1.59602168      -4.10680783
H         0.99268526      -0.88563528      -1.35753255
H         1.24515737      -0.25265093       0.94193189
H        -5.30007844       1.13984921       1.84940244
H        -5.29265890       0.97454042      -0.55949160
