53
lig_139 free ligand  charge=0 uhf=0  ETKDGv3 + MMFF94s  smiles=CCCN(CCC)C(=O)COCC(=O)N(CCC)CCC
C        -4.44344279      -2.03574846       1.53278885
C        -4.60619563      -2.04426713       0.02070560
C        -3.37124226      -1.52797341      -0.72017974
N        -3.07607129      -0.10895392      -0.48365092
C        -4.00006720       0.87953236      -1.04818181
C        -4.92148996       1.50264865       0.00310080
C        -5.85250298       2.53140505      -0.61857653
C        -1.94908190       0.37090670       0.19065805
O        -1.73946193       1.58135777       0.31331303
C        -0.96188214      -0.66770257       0.76519571
O         0.09517240      -0.16436659       1.57062710
C         1.12879762       0.47148835       0.83081304
C         2.10683594      -0.45354994       0.07390132
O         1.87731483      -1.66195917      -0.03069823
N         3.24712527       0.12895980      -0.49254118
C         4.17949296      -0.74743419      -1.21269756
C         5.29676915      -1.35173843      -0.35392682
C         4.81655284      -2.34604407       0.69133089
C         3.49934851       1.57704550      -0.53608462
C         4.72133289       2.04607690       0.25392838
C         4.60664920       1.78901595       1.74801483
H        -3.60113010      -2.66412812       1.83859774
H        -5.34648637      -2.42915619       2.01029860
H        -4.27582057      -1.02414553       1.91397482
H        -5.49166793      -1.46248716      -0.25555152
H        -4.79906610      -3.07459168      -0.30161839
H        -2.51456700      -2.15553602      -0.46533710
H        -3.52045637      -1.64678852      -1.80026872
H        -3.40640056       1.66930289      -1.52509492
H        -4.58934778       0.40442874      -1.84108783
H        -4.33172714       1.98370516       0.79145273
H        -5.52138016       0.72893774       0.49257279
H        -6.48701976       2.07383477      -1.38429728
H        -6.50339515       2.96517182       0.14700494
H        -5.28497182       3.34456866      -1.08222258
H        -1.53503689      -1.33631359       1.41439698
H        -0.56150163      -1.26195225      -0.06138459
H         1.71359339       1.03325449       1.56514162
H         0.70378764       1.18526718       0.11906836
H         3.61537210      -1.55844415      -1.68879431
H         4.62728847      -0.16805340      -2.02882462
H         5.87443843      -0.56970173       0.14540316
H         5.99297651      -1.87241946      -1.02284661
H         4.23273769      -3.14995973       0.23260536
H         4.20532849      -1.85866417       1.45618729
H         5.67461189      -2.80118971       1.19672522
H         2.62583267       2.13673621      -0.19518880
H         3.62766933       1.84624758      -1.59170846
H         5.63231242       1.58050056      -0.13364523
H         4.84086042       3.12503136       0.09668794
H         4.50906023       0.72204857       1.96737482
H         5.50011759       2.15707779       2.26233906
H         3.74003450       2.30871874       2.16832227
