110
lig_122 free ligand  charge=0 uhf=0  ETKDGv3 + MMFF94s  smiles=CCCCCCn1c(-c2ccccc2)c(-c2ccccc2)c2cc3ccc4cc5c(-c6ccccc6)c(-c6ccccc6)n(CCCCCC)c(=O)c5nc4c3nc2c1=O
C        -8.07647709       4.47757888       1.26568493
C        -8.53899251       3.09565935       1.69866607
C        -7.92652007       2.62889397       3.01772952
C        -6.39958772       2.50478412       3.06132550
C        -5.81462306       1.38459416       2.19390875
C        -5.40099664       1.84482090       0.79099876
N        -4.69782866       0.78565818       0.04717798
C        -5.37220771      -0.09493207      -0.81253237
C        -6.83763926       0.07754034      -0.99201826
C        -7.33075772       0.94273323      -1.98014840
C        -8.70632248       1.09211812      -2.16399019
C        -9.59825343       0.37708158      -1.36573720
C        -9.11806339      -0.48745116      -0.38280380
C        -7.74294045      -0.63815127      -0.19625744
C        -4.72122381      -1.08255908      -1.48484902
C        -5.47284710      -1.99308748      -2.39052114
C        -5.64287818      -1.66413936      -3.74192937
C        -6.33087399      -2.52952048      -4.59360733
C        -6.84634625      -3.72859086      -4.10264992
C        -6.67423299      -4.06627486      -2.76071018
C        -5.98696984      -3.20335483      -1.90597011
C        -3.25847494      -1.21187505      -1.28528142
C        -2.49661471      -2.18772841      -1.93446525
C        -1.11169438      -2.28581499      -1.72519080
C        -0.37451084      -3.27133744      -2.38719978
C         0.99326704      -3.36985510      -2.18210109
C         1.63572857      -2.48364109      -1.31327300
C         3.02088712      -2.58477800      -1.10715878
C         3.68951585      -1.71093080      -0.24469453
C         5.14860721      -1.79538019      -0.00150313
C         5.99063592      -2.83807803      -0.64877702
C         6.21302393      -4.06509790      -0.00991398
C         6.98607801      -5.04846863      -0.62876601
C         7.53471573      -4.81475153      -1.88929689
C         7.31097251      -3.59916611      -2.53480150
C         6.53874723      -2.61329031      -1.91897883
C         5.70859535      -0.89009581       0.84639705
C         7.16459328      -0.96382047       1.14273299
C         7.61720050      -1.66836578       2.26862651
C         8.98269871      -1.75910341       2.54338754
C         9.90648847      -1.15255034       1.69365590
C         9.46817796      -0.45678564       0.56790410
C         8.10308929      -0.36481577       0.29104339
N         4.94415689       0.10069943       1.48600552
C         5.55371025       1.09631927       2.38403634
C         6.14654310       2.31895510       1.66682792
C         5.10310540       3.19474202       0.97273495
C         5.69330850       4.38057880       0.19930744
C         6.42798230       5.41029098       1.06220358
C         7.93833225       5.22046584       1.06303103
C         3.54839386       0.20309975       1.31465455
O         2.86681764       1.04736092       1.89367788
C         2.90584786      -0.76233752       0.38093819
N         1.56108781      -0.63999176       0.20080781
C         0.90905981      -1.48059235      -0.63374264
C        -0.48168090      -1.38012550      -0.84247037
N        -1.22380483      -0.43793301      -0.21799954
C        -2.56565459      -0.36686986      -0.44101824
C        -3.31145663       0.69862284       0.28425161
O        -2.72246379       1.45468842       1.05503724
H        -8.61365374       4.78687653       0.36329777
H        -7.00755774       4.49326249       1.03591617
H        -8.27250858       5.21903037       2.04665658
H        -9.62936169       3.11913922       1.81692711
H        -8.33698211       2.37060448       0.90700271
H        -8.23241649       3.32813778       3.80664868
H        -8.36939452       1.66083311       3.28376172
H        -5.92077701       3.46442729       2.83844963
H        -6.13704482       2.27753359       4.10337022
H        -4.92096455       1.00221502       2.70431946
H        -6.50868234       0.53974836       2.14083668
H        -4.72615002       2.70511229       0.88682913
H        -6.24803742       2.21864297       0.21531985
H        -6.64311931       1.50409595      -2.60815675
H        -9.08174513       1.76497402      -2.93044071
H       -10.66934918       0.49314536      -1.51032912
H        -9.81426201      -1.04542851       0.23775473
H        -7.37949437      -1.31734660       0.57100738
H        -5.24595624      -0.73136442      -4.13538663
H        -6.46859555      -2.26640026      -5.63918748
H        -7.38643441      -4.39928712      -4.76624600
H        -7.07909206      -5.00002111      -2.37907866
H        -5.85925889      -3.47639231      -0.86116248
H        -2.97676130      -2.88765352      -2.61607613
H        -0.85901587      -3.96952774      -3.06725902
H         1.55226414      -4.14322769      -2.70565303
H         3.57528241      -3.36118294      -1.63141387
H         5.79097146      -4.25801787       0.97349782
H         7.16397076      -5.99537912      -0.12560801
H         8.14075293      -5.58009282      -2.36769639
H         7.74147202      -3.41780450      -3.51622818
H         6.37097051      -1.66886074      -2.43123645
H         6.90476002      -2.14669402       2.93674206
H         9.32532550      -2.30433993       3.41889375
H        10.96987654      -1.22482318       1.90726705
H        10.18930741       0.01200092      -0.09645728
H         7.77344853       0.17714024      -0.59204175
H         4.80585424       1.44633471       3.10624104
H         6.32278977       0.61766224       2.99802984
H         6.89725847       2.01068156       0.93495587
H         6.66469480       2.91491022       2.42621758
H         4.38372964       3.56556178       1.71287794
H         4.53731591       2.59084716       0.25444585
H         6.34049148       4.01623642      -0.60747586
H         4.85304104       4.89075155      -0.28945144
H         6.22341049       6.40962154       0.65826225
H         6.04645225       5.40426482       2.08931125
H         8.41323630       5.99451115       1.67443273
H         8.34118399       5.30146374       0.04813110
H         8.23032431       4.24843354       1.46718840
