61
lig_126 free ligand  charge=0 uhf=0  ETKDGv3 + MMFF94s  smiles=CCCCN(CCCC)C(=O)CC(=O)N(CCCC)CCCC
C        -4.18170232      -3.24775516       2.16456316
C        -3.50556481      -1.88880410       2.07881584
C        -3.16350893      -1.52373318       0.63515522
C        -2.48568830      -0.15433113       0.55503250
N        -2.12291101       0.18669029      -0.82310566
C        -3.14608880       0.84836084      -1.63591729
C        -3.10627027       2.36920718      -1.46333766
C        -4.08259100       3.10681282      -2.38096121
C        -5.54255912       2.81380514      -2.07184056
C        -0.85968022       0.00863446      -1.37900459
O        -0.59280890       0.37995706      -2.52648485
C         0.20171142      -0.70199194      -0.57144106
C         1.02094376       0.22163724       0.30224363
O         0.59188405       1.32594584       0.64238227
N         2.26069458      -0.24527991       0.74766316
C         2.79839616      -1.58118501       0.46385458
C         3.74787804      -1.58732356      -0.73484139
C         4.24515772      -2.98604495      -1.10497784
C         3.15756254      -3.88436266      -1.67427882
C         3.09093395       0.66934212       1.53858297
C         3.77602457       1.73607739       0.67805453
C         4.74763395       2.61410113       1.46924886
C         4.06678815       3.47368738       2.52303348
H        -3.53039406      -4.03536909       1.77237425
H        -4.41723672      -3.48889739       3.20584593
H        -5.11575976      -3.25794791       1.59380480
H        -4.16916191      -1.12896362       2.50769934
H        -2.59268445      -1.90287375       2.68560194
H        -4.07781108      -1.52224313       0.02949236
H        -2.50744897      -2.29024605       0.20528260
H        -3.15229287       0.62530970       0.94142146
H        -1.59661093      -0.14570639       1.19046074
H        -4.12356950       0.44369968      -1.35415198
H        -2.98694415       0.59561852      -2.69067968
H        -2.09259077       2.73137807      -1.67623921
H        -3.31151221       2.63339847      -0.41887476
H        -3.87343801       2.85626956      -3.42742770
H        -3.91333973       4.18487740      -2.27346813
H        -5.79479378       1.76961479      -2.27819851
H        -6.19078178       3.43980137      -2.69350048
H        -5.77240572       3.02531470      -1.02279667
H        -0.23462983      -1.49275364       0.04393338
H         0.85437968      -1.19201304      -1.30236824
H         3.31447278      -1.94235065       1.36123657
H         1.96666282      -2.26987524       0.29865044
H         4.62320403      -0.97123917      -0.49924778
H         3.26758906      -1.12240669      -1.60406354
H         5.03718349      -2.88413747      -1.85659137
H         4.69809404      -3.46691907      -0.23028203
H         3.59218002      -4.83008603      -2.01383216
H         2.66532264      -3.41165848      -2.53007911
H         2.39682481      -4.12120389      -0.92513822
H         2.44407516       1.15005507       2.28123242
H         3.83626306       0.08714643       2.09193877
H         4.33414812       1.25360393      -0.13167746
H         3.02486816       2.36948940       0.19127203
H         5.51216441       1.98937407       1.94552033
H         5.27054736       3.27376397       0.76648243
H         3.27448178       4.08509685       2.07976037
H         4.79527591       4.14697359       2.98618774
H         3.62943368       2.86265786       3.31797990
