97
lig_040 free ligand  charge=0 uhf=0  ETKDGv3 + MMFF94s  smiles=CCCCCCCCCCCCNCC(=O)c1cccc(C(=O)CNCCCCCCCCCCCC)n1
C        12.78592091       0.19643519       2.22408259
C        11.41917942      -0.07245376       1.61236584
C        11.34635909      -1.47533028       1.00696910
C        10.00758663      -1.77525249       0.32231422
C         8.99733983      -2.53138570       1.19311177
C         8.44481511      -1.77750506       2.40109213
C         7.67997017      -0.48277367       2.10267055
C         6.34186482      -0.68375538       1.37927390
C         6.43756368      -0.48615589      -0.13612340
C         5.12127198      -0.76503086      -0.86950151
C         4.00370206       0.22203438      -0.51847090
C         2.75988647      -0.03105830      -1.37716541
N         1.60853152       0.79167241      -0.99875742
C         1.78879376       2.23661539      -1.20902094
C         2.01505938       2.59491783      -2.67253559
O         3.14264669       2.76056388      -3.13955102
C         0.81973384       2.72716647      -3.55545824
C         0.98624768       3.12227286      -4.87902840
C        -0.14117545       3.22857208      -5.68754497
C        -1.39163359       2.93600092      -5.15240835
C        -1.46750124       2.54443219      -3.81984603
C        -2.79442110       2.22456578      -3.22039175
O        -3.81959944       2.35023832      -3.89200336
C        -2.80520380       1.78350916      -1.75709504
N        -4.11399017       1.20990522      -1.38218454
C        -4.30929030      -0.16222389      -1.86186579
C        -3.49455153      -1.22450882      -1.11007128
C        -3.70164263      -1.26559883       0.41035758
C        -4.75007350      -2.27615703       0.89087900
C        -6.19601786      -2.01811432       0.46630094
C        -6.75961374      -0.69899627       0.99787114
C        -8.22401837      -0.51829927       0.58955475
C        -8.78740976       0.80163160       1.11971489
C       -10.21403434       1.09117354       0.64324130
C       -11.27167170       0.05332980       1.03109831
C       -11.41527550      -0.13460946       2.54150393
C       -12.55446374      -1.08549923       2.87599209
N        -0.38651359       2.43334090      -3.00880962
H        13.57599461       0.11890553       1.47036610
H        12.81937439       1.20497456       2.64800826
H        13.00351322      -0.51655545       3.02573190
H        11.22188355       0.67687748       0.83690070
H        10.65861385       0.05742981       2.38654737
H        12.13745916      -1.55554574       0.24996679
H        11.56800403      -2.23247499       1.76828728
H        10.21921202      -2.42109540      -0.54031367
H         9.56783560      -0.86126731      -0.09009137
H         8.16355862      -2.86025943       0.56250181
H         9.47040242      -3.45415273       1.55347698
H         9.26615369      -1.55248757       3.09058663
H         7.78099032      -2.45550097       2.95318783
H         8.30978041       0.23505221       1.56693309
H         7.45974508      -0.02106978       3.07448845
H         5.63898594       0.05687141       1.77904534
H         5.92323073      -1.66995380       1.61097932
H         7.19657436      -1.15424106      -0.55284280
H         6.76773078       0.53691849      -0.35392896
H         5.31558597      -0.71470488      -1.94823578
H         4.79239307      -1.78931251      -0.65568016
H         3.73639830       0.12362711       0.53977092
H         4.37263978       1.24216084      -0.67192516
H         2.46104913      -1.07875834      -1.24957651
H         2.99443412       0.08869579      -2.44100352
H         0.78721350       0.48391765      -1.52061426
H         2.62214437       2.62979320      -0.61702802
H         0.90597066       2.76799436      -0.83602498
H         1.97345307       3.34286620      -5.27609809
H        -0.04578922       3.53613853      -6.72613197
H        -2.28636709       3.01234570      -5.76428703
H        -2.64581647       2.67968049      -1.14737916
H        -1.99277833       1.08308972      -1.54890483
H        -4.83075289       1.79744326      -1.82052483
H        -4.09001282      -0.23198881      -2.93394883
H        -5.37369871      -0.39421454      -1.76465283
H        -2.42907847      -1.05190912      -1.30462734
H        -3.71347370      -2.20907193      -1.54153524
H        -3.90625963      -0.27119345       0.81913333
H        -2.74738622      -1.57459011       0.85824670
H        -4.46090809      -3.27601499       0.54309014
H        -4.70984390      -2.31470541       1.98704146
H        -6.28223347      -2.05981410      -0.62425560
H        -6.81145535      -2.84270371       0.84861950
H        -6.67860168      -0.68032651       2.09145296
H        -6.17574441       0.14492452       0.61680563
H        -8.30486882      -0.53956898      -0.50393266
H        -8.80981334      -1.35936252       0.97691837
H        -8.14549823       1.62572395       0.78325148
H        -8.74725983       0.81035361       2.21495869
H       -10.51757343       2.06958185       1.03628775
H       -10.20929518       1.18780021      -0.44971236
H       -12.23412659       0.38120826       0.61808086
H       -11.04730573      -0.90846246       0.55575034
H       -10.48887070      -0.53701394       2.96502193
H       -11.60179557       0.83283905       3.02167411
H       -13.50927163      -0.70103113       2.50337292
H       -12.63852953      -1.20944447       3.96020761
H       -12.38428745      -2.07208709       2.43320511
