108
lig_053 free ligand  charge=0 uhf=0  ETKDGv3 + MMFF94s  smiles=CCCCCCCCN(C)C(=O)COCC(=O)N(C)Cc1cccc(CN(C)C(=O)COCC(=O)N(C)CCCCCCCC)c1
C       -11.35595644       1.98594462       1.14385726
C       -12.32737410       0.83510036       0.92970357
C       -11.67161592      -0.54397661       1.03823284
C       -10.65144155      -0.81278617      -0.07038196
C       -10.10650928      -2.24167018      -0.06282259
C        -9.36722208      -2.69127302       1.20213038
C        -8.02936458      -1.98854803       1.46051965
C        -8.14344548      -0.77137818       2.38373436
N        -6.83208538      -0.19926850       2.71326196
C        -6.05118210      -0.89305874       3.72768350
C        -6.25054409       0.87950245       2.05404061
O        -5.09127274       1.24103129       2.27885644
C        -7.07990230       1.62828774       0.99861016
O        -7.34378464       0.88731907      -0.18552426
C        -6.18326797       0.69226406      -0.98539240
C        -5.63144933       1.93080003      -1.72628123
O        -6.26296460       2.99054226      -1.73066093
N        -4.40963201       1.79960409      -2.38190347
C        -3.84930069       2.96282518      -3.05749788
C        -3.62097501       0.56816101      -2.44489330
C        -2.34652312       0.62223531      -1.63289468
C        -2.35746473       1.00361444      -0.28466559
C        -1.17730631       1.02212629       0.45761589
C         0.02965870       0.65437651      -0.13424290
C         0.07014060       0.25612776      -1.47682190
C         1.37665031      -0.13114497      -2.13209228
N         2.06289608      -1.23015830      -1.44769353
C         1.39213325      -2.52355809      -1.45892877
C         3.27222005      -1.11175430      -0.76479538
O         3.77758526      -2.06793730      -0.17057481
C         3.97722836       0.26282284      -0.79509772
O         5.17149201       0.39500475      -0.03827096
C         6.29098651      -0.27474230      -0.60108135
C         6.92197545       0.34753651      -1.86649163
O         6.41296891       1.33247569      -2.40859754
N         8.07148126      -0.25817619      -2.37804837
C         8.66225986       0.29905723      -3.58754086
C         8.77602334      -1.38649947      -1.75890505
C        10.14559343      -1.01776598      -1.17542958
C        10.05249722      -0.03523583      -0.00515512
C        11.41873079       0.40019548       0.53576437
C        12.21666524      -0.74555205       1.16631105
C        13.51060665      -0.27059550       1.83834933
C        13.40411944      -0.06859578       3.35286276
C        12.44341885       1.02960782       3.77450021
C        -1.12469959       0.24552696      -2.21616960
H       -10.61077045       2.03663927       0.34468966
H       -10.83254238       1.88606218       2.09997743
H       -11.89727779       2.93744655       1.15194343
H       -12.81197707       0.94319915      -0.04756078
H       -13.11934406       0.90299997       1.68511129
H       -11.20157992      -0.63867078       2.02302751
H       -12.46068775      -1.30445126       0.98980169
H        -9.82237905      -0.10397239      -0.01439323
H       -11.13226005      -0.64064437      -1.04179091
H       -10.94398940      -2.93134597      -0.22966385
H        -9.43915670      -2.36321832      -0.92540092
H        -9.15076773      -3.75999624       1.06958042
H       -10.01820615      -2.62932966       2.08089951
H        -7.36355428      -2.71884880       1.93730699
H        -7.54550001      -1.71690778       0.51605507
H        -8.77680854      -0.00971244       1.93248980
H        -8.62641731      -1.05447796       3.32661247
H        -5.17596732      -0.31606568       4.03778379
H        -5.71095799      -1.84974877       3.32232598
H        -6.67854418      -1.06861953       4.60645332
H        -8.03706648       1.91541393       1.44529571
H        -6.57164515       2.57009459       0.76376049
H        -6.46453915      -0.03219211      -1.75793243
H        -5.39886679       0.23477065      -0.37618959
H        -3.65751554       2.70530731      -4.10346767
H        -4.52075602       3.82457229      -3.02999666
H        -2.90926947       3.24222371      -2.57331988
H        -3.39180090       0.39684346      -3.50412442
H        -4.20008015      -0.29967642      -2.11953220
H        -3.28191428       1.29925999       0.20715134
H        -1.20329317       1.32429691       1.50239822
H         0.93610769       0.67373779       0.46640294
H         1.20675411      -0.46062759      -3.16455832
H         1.99976109       0.76347633      -2.19941224
H         1.10426676      -2.76738690      -2.48597920
H         0.49810860      -2.46960658      -0.83127032
H         2.03221658      -3.32455571      -1.08032514
H         4.15624149       0.53888304      -1.83830800
H         3.27893909       0.99201860      -0.37181250
H         6.04077728      -1.31811626      -0.81430478
H         7.05865215      -0.26794604       0.17867132
H         8.93937134      -0.51610625      -4.26237443
H         7.97261342       0.96420225      -4.11375688
H         9.55382948       0.87025771      -3.31440361
H         8.16869745      -1.85257614      -0.98011694
H         8.90930970      -2.14615379      -2.53860710
H        10.62235891      -1.94503674      -0.83776178
H        10.78965924      -0.59987254      -1.95749750
H         9.51806744       0.86652066      -0.32629550
H         9.46484514      -0.48130145       0.80604241
H        11.25087343       1.19067840       1.27409523
H        12.00475776       0.85191679      -0.27418493
H        12.49401732      -1.44929812       0.37238669
H        11.59588472      -1.30236702       1.87773576
H        13.88434849       0.64306994       1.36102700
H        14.27707660      -1.03881391       1.67252061
H        14.40176684       0.17671207       3.73694107
H        13.10850676      -1.00996108       3.83109935
H        11.40717487       0.75898217       3.55223285
H        12.51414194       1.19538104       4.85444401
H        12.67708918       1.97325178       3.27193061
H        -1.10282719      -0.06012801      -3.26103094
