52
lig_175 free ligand  charge=0 uhf=0  ETKDGv3 + MMFF94s  smiles=c1cc2nc(c1)COc1ccccc1OCCOCCOc1ccccc1OC2
C         0.36491467      -2.01636413       1.35567789
C         1.49767354      -1.68539826       0.62434875
C         1.39792763      -1.56726706      -0.75981059
N         0.23016586      -1.77258222      -1.42548171
C        -0.87303142      -2.08678112      -0.69519122
C        -0.83624760      -2.22215927       0.69060417
C        -2.17856851      -2.27590065      -1.43821872
O        -2.96572433      -1.07277004      -1.45784330
C        -3.90792771      -1.05151207      -0.46456678
C        -5.04626431      -1.85365000      -0.59172843
C        -6.00693595      -1.86796493       0.41979698
C        -5.83436325      -1.07671827       1.55463300
C        -4.71269228      -0.25335176       1.66747302
C        -3.76204672      -0.21045728       0.64522164
O        -2.70297218       0.63109306       0.86474196
C        -2.38838744       1.46745342      -0.25816883
C        -1.75382293       2.76774694       0.24784333
O        -0.39960807       2.63271242       0.69705748
C         0.52897378       2.39807494      -0.36948951
C         1.95453486       2.68807626       0.10209155
O         2.44494909       1.59974495       0.90317258
C         3.70341699       1.22365677       0.51493878
C         4.75754326       1.50663478       1.38119478
C         6.05627937       1.12741370       1.03914716
C         6.29718786       0.46103797      -0.16417722
C         5.23754938       0.15422135      -1.02023633
C         3.93472873       0.50756711      -0.66486578
O         2.88355262       0.21828632      -1.49377487
C         2.61643484      -1.19096443      -1.57508276
H         0.41337275      -2.09124540       2.43794802
H         2.43765644      -1.50149291       1.13455514
H        -1.73328945      -2.46006866       1.25310507
H        -1.95269351      -2.51713338      -2.48373480
H        -2.72285361      -3.14181298      -1.03819199
H        -5.18544707      -2.46943931      -1.47585912
H        -6.88804320      -2.49746039       0.32458468
H        -6.57634461      -1.09274603       2.34893334
H        -4.58311788       0.36928419       2.54914054
H        -3.30257443       1.72921147      -0.80642155
H        -1.70073371       0.93964134      -0.92199146
H        -1.79163403       3.53687569      -0.53217136
H        -2.32579773       3.14074609       1.10439216
H         0.44044804       1.35990022      -0.69838901
H         0.29552254       3.06925155      -1.20352229
H         2.58839566       2.88140454      -0.77313372
H         1.96871500       3.58436717       0.73269003
H         4.56644427       2.02837254       2.31471290
H         6.88146100       1.35800593       1.70833900
H         7.31227658       0.18095741      -0.43485051
H         5.43310013      -0.35399533      -1.95991057
H         3.46751709      -1.81856920      -1.27907532
H         2.42037996      -1.41393307      -2.63045618
