74
lig_153 free ligand  charge=0 uhf=0  ETKDGv3 + MMFF94s  smiles=CCc1ccc(N(CC)C(=O)c2ccc3ccc4ccc(C(=O)N(CC)c5ccc(CC)cc5)nc4c3n2)cc1
C        -7.83824643       2.41004309       0.71081483
C        -7.28845747       1.08438515       1.21468670
C        -6.33196515       0.46302010       0.23032575
C        -6.79574583      -0.39173567      -0.77335372
C        -5.90742781      -0.95038485      -1.70009455
C        -4.53346340      -0.68154341      -1.63906228
N        -3.62952001      -1.25329262      -2.59054603
C        -4.08253293      -1.42596737      -3.97351077
C        -4.39449232      -2.88010237      -4.30314141
C        -2.28637140      -1.59180722      -2.32329607
O        -1.46515069      -1.83931716      -3.20849276
C        -1.87413395      -1.84644218      -0.91481671
C        -2.42749782      -2.91468091      -0.23213521
C        -1.99045258      -3.14122636       1.06443397
C        -1.02496917      -2.29982152       1.63584495
C        -0.57833177      -2.53390561       2.93914753
C         0.37905803      -1.70417881       3.50496828
C         0.88732673      -0.62459862       2.77761353
C         1.85266805       0.21483099       3.35216081
C         2.35084599       1.29164435       2.63402789
C         1.85700989       1.49086050       1.35737550
C         2.33598810       2.65880156       0.56674574
O         1.54666557       3.58971383       0.39467869
N         3.69828802       2.72661486       0.20673722
C         4.20483862       4.04558144      -0.18233180
C         4.48969627       4.93443928       1.02152624
C         4.57652317       1.59991813       0.11393976
C         5.94377525       1.72831944       0.39307132
C         6.80710225       0.62999824       0.30140877
C         6.32509743      -0.62301955      -0.08677248
C         7.25582370      -1.80146484      -0.20909470
C         7.86366856      -1.90137009      -1.59980577
C         4.97015218      -0.75137655      -0.40211940
C         4.10978756       0.34814166      -0.30702351
N         0.92113695       0.70252827       0.77527547
C         0.43750563      -0.36172229       1.45860694
C        -0.51201505      -1.21785905       0.87593849
N        -0.93633397      -1.01831095      -0.39434161
C        -4.08348692       0.20300647      -0.65058612
C        -4.96872917       0.76520851       0.27595450
H        -8.38144912       2.28247660      -0.23169608
H        -7.03458066       3.13429291       0.53975468
H        -8.52874195       2.83686929       1.44507496
H        -6.78221886       1.23445415       2.17609091
H        -8.11533201       0.39145031       1.41264398
H        -7.85502114      -0.62901519      -0.84470262
H        -6.31655398      -1.61962677      -2.45039390
H        -4.95064412      -0.78906032      -4.17761456
H        -3.28947317      -1.07682678      -4.64617687
H        -4.73845847      -2.96735300      -5.33838479
H        -3.50802381      -3.51196448      -4.18678389
H        -5.17338822      -3.28247801      -3.64875413
H        -3.16757900      -3.55516171      -0.69773971
H        -2.40452908      -3.97734100       1.62324069
H        -0.96838179      -3.36605487       3.52187544
H         0.72064615      -1.90467779       4.51852685
H         2.21914979       0.03711498       4.36058628
H         3.09211895       1.95841145       3.05906899
H         3.45127248       4.53706530      -0.80995091
H         5.09836177       3.94635946      -0.80899417
H         5.22845470       4.48189139       1.68954310
H         4.87483926       5.90441942       0.69219088
H         3.58172758       5.11200786       1.60690750
H         6.36560177       2.67573023       0.71353576
H         7.86140061       0.76346564       0.53399723
H         8.05369723      -1.72008368       0.53912481
H         6.71347244      -2.72550411       0.02564838
H         8.53395057      -2.76471466      -1.65861961
H         8.44277755      -1.00480289      -1.84571821
H         7.08871801      -2.02073503      -2.36457892
H         4.57057126      -1.70382659      -0.74483132
H         3.07971530       0.20839733      -0.62846535
H        -3.04475095       0.52450713      -0.61091103
H        -4.58098324       1.45738555       1.02081035
