77
lig_123 free ligand  charge=0 uhf=0  ETKDGv3 + MMFF94s  smiles=CCCCCN(CCCCC)C(=O)COCC(=O)N(CCCCC)CCCCC
C         5.99121925       2.96852641      -0.65897257
C         5.81985039       3.19249396       0.83496040
C         4.70046632       2.35171201       1.45395883
C         5.00892471       0.85220760       1.46528641
C         3.97495630       0.03138967       2.23714045
N         2.62159734       0.02956338       1.66985338
C         2.31500363      -0.97145534       0.63755124
C         1.98553882      -0.42626348      -0.75869993
C         3.18726452       0.13105226      -1.51871160
C         2.82941433       0.43131706      -2.97584715
C         4.01855005       0.99133440      -3.73962336
C         1.66219498       0.82329317       2.30432792
O         1.97366871       1.68419305       3.13551279
C         0.17938139       0.62098382       1.96601677
O        -0.29829264      -0.64787451       2.40040109
C        -1.67390729      -0.84378461       2.10401239
C        -2.01854652      -1.13695231       0.63114609
O        -1.12565598      -1.23733106      -0.21504998
N        -3.36496423      -1.28554601       0.29099861
C        -3.66796932      -1.62649275      -1.10430127
C        -3.57994621      -3.13705400      -1.34902881
C        -3.85989999      -3.52399065      -2.80474728
C        -2.60825325      -3.71746468      -3.66603839
C        -1.77778893      -2.46117950      -3.86289195
C        -4.48914935      -1.24149840       1.23674838
C        -5.39452297      -0.01385108       1.05940520
C        -4.75286813       1.31701150       1.46185046
C        -4.71166539       1.51872233       2.97810197
C        -4.01506046       2.81988115       3.34464595
H         6.29961236       1.94294345      -0.88097432
H         5.05873301       3.17458849      -1.19322880
H         6.76078141       3.63972319      -1.05357028
H         5.59178390       4.25196515       1.00247326
H         6.76757885       2.98850637       1.34660226
H         3.76255162       2.54342810       0.92050086
H         4.55451238       2.69231327       2.48642371
H         5.10422513       0.46653401       0.44791018
H         5.98462280       0.69826502       1.94342877
H         3.94098890       0.39172875       3.27245328
H         4.31255072      -1.01005121       2.30352710
H         1.46602660      -1.56365318       0.98998228
H         3.15556124      -1.67121416       0.56013625
H         1.56395179      -1.25597489      -1.34066641
H         1.21549419       0.34717145      -0.71575991
H         4.01596076      -0.58568973      -1.48701475
H         3.52182882       1.05572949      -1.04068251
H         2.48572737      -0.48446746      -3.47089526
H         2.00361316       1.15118548      -3.01612077
H         4.85661894       0.28718154      -3.73321341
H         4.35806052       1.93436236      -3.30075446
H         3.74331511       1.18273588      -4.78150988
H        -0.38093017       1.40506540       2.49095356
H         0.01710707       0.77052405       0.89898209
H        -2.24223255       0.02190280       2.45091157
H        -1.98964665      -1.71579376       2.68626683
H        -4.66945031      -1.26424288      -1.35610227
H        -2.97075095      -1.09043623      -1.75488851
H        -2.60845499      -3.52958547      -1.02622280
H        -4.32909903      -3.62739341      -0.71420710
H        -4.39485786      -4.48256911      -2.80007877
H        -4.53416007      -2.79965686      -3.27691660
H        -2.92443595      -4.08152923      -4.65120331
H        -1.97796686      -4.50227877      -3.23123600
H        -0.98672535      -2.64597035      -4.59698134
H        -2.39268372      -1.63357516      -4.22963253
H        -1.29279085      -2.15514613      -2.93196071
H        -5.08246777      -2.14819992       1.06947187
H        -4.13434433      -1.29884626       2.26733037
H        -6.30898886      -0.16409921       1.64652020
H        -5.71399290       0.06353288       0.01442504
H        -3.74825894       1.40224002       1.03300670
H        -5.34651296       2.12972465       1.02407634
H        -4.19493119       0.68842787       3.46887656
H        -5.73380121       1.53582375       3.37437530
H        -4.00670157       2.95227179       4.43105669
H        -2.97774468       2.82062326       2.99457156
H        -4.52881703       3.67893152       2.90155204
