63
lig_048 free ligand  charge=0 uhf=0  ETKDGv3 + MMFF94s  smiles=CCCCCCCCN(C(=O)c1ccc2ccc3cccnc3c2n1)c1ccc(C)cc1
C         3.96805973       4.40727341       2.78388704
C         2.73591239       3.59634289       3.15416602
C         2.22172349       2.70907461       2.01766972
C         3.17764030       1.56699965       1.65911372
C         2.67855074       0.70285610       0.49598370
C         1.41916629      -0.09841921       0.82947964
C         0.98148559      -0.96585818      -0.35222667
C        -0.33441155      -1.68858978      -0.04461545
N        -0.86142108      -2.44088564      -1.20158623
C        -1.44728864      -1.81310378      -2.33560745
O        -1.74682599      -2.42670724      -3.36783406
C        -1.67477676      -0.32294849      -2.40704379
C        -1.80293499       0.26838096      -3.65596236
C        -2.00954359       1.64026430      -3.72688487
C        -2.08361390       2.39605859      -2.55220067
C        -2.27673600       3.77896822      -2.61634931
C        -2.33907044       4.52477065      -1.44812709
C        -2.21028303       3.89295729      -0.20767442
C        -2.26653515       4.64387391       0.97504025
C        -2.13823419       4.01556416       2.20500114
C        -1.95814436       2.65004441       2.21082425
N        -1.89690909       1.89803566       1.09174264
C        -2.02039030       2.49228051      -0.12297261
C        -1.95664096       1.73714822      -1.30746605
N        -1.76718122       0.39428452      -1.26609150
C        -0.72718019      -3.88221237      -1.15658875
C        -1.64926839      -4.72504944      -1.79276261
C        -1.53109918      -6.12013153      -1.73377098
C        -0.48922927      -6.71584549      -1.02220238
C        -0.34099417      -8.20689618      -0.98954404
C         0.44397581      -5.89237942      -0.39156773
C         0.32045017      -4.49759813      -0.45217530
H         4.83579860       3.76451378       2.61049947
H         4.22333695       5.09389123       3.59752830
H         3.79101788       5.00214058       1.88232345
H         2.95193530       2.98472480       4.03780439
H         1.93672933       4.29175709       3.43795207
H         2.02579465       3.32356512       1.13068345
H         1.25921806       2.29395574       2.33521017
H         3.34905038       0.93634223       2.53970181
H         4.15047328       1.98003370       1.37004603
H         2.49335198       1.33989333      -0.37759199
H         3.47893202       0.00696759       0.21535069
H         1.60435092      -0.73333190       1.70406613
H         0.60323134       0.58206623       1.08980971
H         1.76378497      -1.69809781      -0.58406763
H         0.87966295      -0.33876528      -1.24422216
H        -0.19900172      -2.35610803       0.81491344
H        -1.10120957      -0.99884261       0.31138949
H        -1.73958246      -0.32450700      -4.56362291
H        -2.10720378       2.10916953      -4.70332333
H        -2.37670285       4.28493580      -3.57449236
H        -2.48711903       5.60071990      -1.51323809
H        -2.41085471       5.72128780       0.94470396
H        -2.17927567       4.57591078       3.13175438
H        -1.85242632       2.10001978       3.14153187
H        -2.50386884      -4.31935534      -2.32731954
H        -2.26883953      -6.73179302      -2.24810853
H         0.13553300      -8.53180992      -0.05862710
H         0.26883473      -8.54120850      -1.83446358
H        -1.31839143      -8.69800672      -1.04204172
H         1.28197876      -6.32626739       0.14916083
H         1.09320874      -3.91235465       0.03588374
