68
lig_141 free ligand  charge=0 uhf=0  ETKDGv3 + MMFF94s  smiles=CCN(C(=O)c1ccc2ccc3ccc(C(=O)N(CC)c4ccc(C)cc4)nc3c2n1)c1ccc(C)cc1
C        -5.02554070      -3.25367256      -2.97728341
C        -4.52709814      -3.20720619      -1.53856924
N        -3.92787240      -1.91379453      -1.19829021
C        -2.61086912      -1.69319892      -1.65294718
O        -1.90993458      -2.58079924      -2.14295203
C        -2.09712212      -0.29677713      -1.72232751
C        -2.69949340       0.60222573      -2.58394244
C        -2.16804128       1.88163539      -2.64817312
C        -1.06278276       2.22226011      -1.85506749
C        -0.52169222       3.50870134      -1.92720437
C         0.57409702       3.84627306      -1.14585417
C         1.12899333       2.90481046      -0.27484257
C         2.23507543       3.24816024       0.51588196
C         2.78092939       2.31666180       1.38652183
C         2.19076397       1.06665830       1.43651510
C         2.72273035       0.04500798       2.38312380
O         2.01879226      -0.26562407       3.34539872
N         4.05214495      -0.39696166       2.22246973
C         4.65300905      -1.10438753       3.35807787
C         4.50238857      -2.61445967       3.23350011
C         4.76460518      -0.37018161       0.98094375
C         4.10546061      -0.59658855      -0.23449492
C         4.80182920      -0.58285932      -1.44783167
C         6.18057493      -0.36282056      -1.47192179
C         6.92195299      -0.31749071      -2.77439631
C         6.84708638      -0.14084315      -0.26437954
C         6.14849211      -0.15764690       0.94893421
N         1.11888222       0.70507026       0.69040725
C         0.58616603       1.59844962      -0.17634719
C        -0.50627891       1.24818497      -0.98750095
N        -1.02597935      -0.00153941      -0.94672172
C        -4.66796994      -1.01312038      -0.36748761
C        -6.06241037      -0.92021374      -0.47147472
C        -6.79158321      -0.04326690       0.34065716
C        -6.14503406       0.74106929       1.29849272
C        -6.91956093       1.70131024       2.15055906
C        -4.75736274       0.64457300       1.41962876
C        -4.03111593      -0.23109520       0.60451586
H        -5.47433234      -4.22880158      -3.19026623
H        -4.20611536      -3.09633550      -3.68607617
H        -5.77747971      -2.48212309      -3.16729664
H        -5.33644066      -3.45289109      -0.84176259
H        -3.76865179      -3.98843188      -1.40526099
H        -3.54855686       0.31317055      -3.19243111
H        -2.61825478       2.60778079      -3.32109902
H        -0.94543722       4.25583881      -2.59533527
H         0.98736436       4.85023943      -1.21952823
H         2.67550756       4.24098481       0.46001184
H         3.63204873       2.56068955       2.01154737
H         5.70627565      -0.83560841       3.47306122
H         4.16396841      -0.77994048       4.28442929
H         4.92518050      -3.11138853       4.11209706
H         3.44833824      -2.89963720       3.15289373
H         5.02050641      -2.99330910       2.34666930
H         3.04522780      -0.84086354      -0.26433242
H         4.25448197      -0.76467530      -2.37063751
H         6.92168986       0.70298155      -3.16957336
H         7.95835731      -0.64701154      -2.64590371
H         6.45908887      -0.98274382      -3.51088948
H         7.91843456       0.04791563      -0.25651490
H         6.70998367       0.04162275       1.85611456
H        -6.61120170      -1.50256015      -1.20493720
H        -7.87083437       0.01853153       0.21900317
H        -6.98181709       2.67488171       1.65477250
H        -7.93403490       1.33145587       2.33295995
H        -6.44125917       1.83113415       3.12708775
H        -4.22505114       1.23432709       2.16330568
H        -2.96321866      -0.32173687       0.79214702
