71
lig_019 free ligand  charge=0 uhf=0  ETKDGv3 + MMFF94s  smiles=CCCCC(CC)CN(C)C(=O)COCC(=O)N(C)CC(CC)CCCC
C        -4.71246054      -3.63653977       0.60241013
C        -6.01387102      -2.94786354       0.98388340
C        -6.13311639      -1.52303323       0.43660977
C        -5.10627763      -0.55678247       1.04142013
C        -5.32177206       0.90373050       0.59535902
C        -5.16143889       1.14526906      -0.92159465
C        -3.95276656       0.50524630      -1.59037571
C        -4.54237198       1.91776465       1.47096821
N        -3.08807211       1.93519491       1.33632030
C        -2.32366363       0.89337966       2.00878392
C        -2.48790355       2.92748676       0.56054705
O        -3.13730500       3.82925607       0.02223242
C        -0.95928390       2.89816863       0.40845812
O        -0.49543513       1.69460207      -0.19247214
C         0.91231207       1.67977693      -0.37842440
C         1.77080219       1.43657463       0.88054946
O         1.24274950       1.30209140       1.98746961
N         3.15581097       1.38607324       0.71652753
C         3.97957453       1.20440314       1.90467413
C         3.85816728       1.44194455      -0.57292472
C         4.55482607       0.11565202      -0.97664683
C         5.33450454       0.29063789      -2.30157155
C         6.41373839       1.36522343      -2.25361312
C         3.51276026      -1.02559193      -1.08870871
C         4.04600911      -2.43948091      -1.36197485
C         4.46926456      -3.23506892      -0.12358269
C         5.73835015      -2.74293661       0.54811435
H        -4.56586426      -3.62725799      -0.48225348
H        -4.72922165      -4.68003192       0.93312542
H        -3.85028727      -3.15495389       1.07280083
H        -6.84905275      -3.54066326       0.59200597
H        -6.11649378      -2.93941260       2.07520147
H        -6.03969911      -1.54891554      -0.65453436
H        -7.14280402      -1.15595254       0.65830118
H        -4.09574210      -0.88505148       0.78415338
H        -5.18629335      -0.60972524       2.13459274
H        -6.37698304       1.13055429       0.81223413
H        -6.05742874       0.76459465      -1.42882005
H        -5.15057340       2.22392150      -1.11892880
H        -3.91397836       0.80205844      -2.64385250
H        -3.01306922       0.80819890      -1.12844616
H        -4.00878018      -0.58670033      -1.56471996
H        -4.93117141       2.91916829       1.24865138
H        -4.77350595       1.74757466       2.53018828
H        -1.40765168       1.30538728       2.43537720
H        -2.90870781       0.45859827       2.82390221
H        -2.06588080       0.11658120       1.28464116
H        -0.50923597       3.05655325       1.39329793
H        -0.68000380       3.74546607      -0.22968766
H         1.11411780       0.85765929      -1.07194817
H         1.22808136       2.61355811      -0.85729445
H         4.85413539       1.85859139       1.84333405
H         3.43345277       1.44177958       2.82150070
H         4.30195272       0.16116002       1.95351369
H         3.18025892       1.74810117      -1.37306175
H         4.59492553       2.24597085      -0.47087148
H         5.27987309      -0.13512500      -0.19816042
H         4.63923263       0.51820619      -3.11867956
H         5.83379677      -0.64722460      -2.56360663
H         5.98314403       2.36886034      -2.19681805
H         7.02143468       1.32446336      -3.16365687
H         7.07811617       1.21847568      -1.39638430
H         2.82758979      -0.76917426      -1.90807803
H         2.89707239      -1.06671055      -0.18298944
H         4.85151866      -2.43981882      -2.10091362
H         3.22456916      -3.00318103      -1.82509401
H         4.63346901      -4.27435920      -0.43490985
H         3.65268342      -3.25680867       0.60752929
H         6.09536556      -3.49004050       1.26478144
H         5.56007927      -1.82296073       1.10913912
H         6.53442829      -2.56659309      -0.18159443
