109
lig_110 free ligand  charge=0 uhf=0  ETKDGv3 + MMFF94s  smiles=CCCCCCN(CCC(C)CCC=C(C)C)C(=O)COCC(=O)N(CCCCCC)CCC(C)CCC=C(C)C
C         0.39068626      -3.74400181       3.62162188
C         1.00133396      -3.96702081       2.24653530
C         1.26727732      -2.66979012       1.47908934
C         2.38042351      -1.81679114       2.09665244
C         2.60306106      -0.50045456       1.34740160
C         3.28974362      -0.67589377      -0.01005729
N         3.27445042       0.57329325      -0.77675267
C         4.36805858       1.51963531      -0.54190544
C         5.54559847       1.25035239      -1.48460640
C         6.74502638       2.21175315      -1.33586385
C         6.35417404       3.65121184      -1.68052186
C         7.38687361       2.10486265       0.06410679
C         8.70775842       2.86446455       0.24419173
C         9.79931588       2.39155227      -0.67549576
C        10.77374758       1.50247792      -0.40117089
C        10.92515308       0.76374918       0.89976855
C        11.81729010       1.16332123      -1.43316151
C         2.27750937       0.92541329      -1.68864016
O         2.30911606       1.99221672      -2.30749535
C         1.12580933      -0.08094776      -1.90779302
O        -0.04553692       0.41329985      -2.54806204
C        -0.79494845       1.29240580      -1.71535403
C        -1.43804586       0.61171421      -0.49661575
O        -0.95684531       0.80104628       0.62525768
N        -2.52801063      -0.23431135      -0.69680836
C        -3.06626147      -0.59722743      -2.01201111
C        -4.49185033      -0.10223752      -2.28893988
C        -4.57766417       1.35902394      -2.74739284
C        -4.66454631       2.39158350      -1.62079025
C        -6.00577827       2.42913718      -0.88007355
C        -7.16602295       2.90291218      -1.74266019
C        -3.05553675      -0.95126277       0.47114667
C        -3.89148547      -0.06058472       1.39726696
C        -4.55854866      -0.75856608       2.60291999
C        -3.69888290      -1.85568994       3.23257820
C        -6.00147748      -1.23511173       2.32718057
C        -6.16666528      -2.28491632       1.22825579
C        -7.58701815      -2.77800243       1.15929932
C        -8.54459930      -2.40873136       0.28611558
C        -9.91359332      -3.03558692       0.33733403
C        -8.38250706      -1.36409749      -0.78318985
H        -0.52303234      -3.14528672       3.55341476
H         0.13179724      -4.70519988       4.07730096
H         1.08801474      -3.23689520       4.29442880
H         0.30948313      -4.58132274       1.65773210
H         1.92966577      -4.54131704       2.34558285
H         1.53818221      -2.93948334       0.45244072
H         0.34152463      -2.08490143       1.41767338
H         2.11589451      -1.56826862       3.13052457
H         3.31554876      -2.38786101       2.13475514
H         1.64497519       0.01868212       1.22944802
H         3.22383875       0.15416777       1.97195664
H         2.80987687      -1.45991519      -0.59966509
H         4.33086263      -0.98925555       0.12974874
H         3.99348590       2.53784507      -0.68873770
H         4.67202002       1.43762842       0.50631629
H         5.19008574       1.29054872      -2.52282207
H         5.89941766       0.22200859      -1.33473225
H         7.48218817       1.88768730      -2.08172001
H         5.72925073       4.09881170      -0.90123537
H         5.80179982       3.68967531      -2.62548331
H         7.24140557       4.28104972      -1.79930905
H         7.55641207       1.04597934       0.29984308
H         6.68487144       2.48091602       0.81840982
H         9.02217610       2.78317431       1.29061447
H         8.55497525       3.93750302       0.08015566
H         9.78278808       2.85453032      -1.66230724
H        10.09505834       0.92912547       1.59061813
H        10.97537284      -0.31489002       0.71581019
H        11.84816772       1.07104770       1.40194689
H        11.77717951       0.09670457      -1.67722630
H        11.67885202       1.72275898      -2.36435151
H        12.81668588       1.39624602      -1.05126852
H         1.52731682      -0.86502365      -2.55990536
H         0.84193918      -0.56106790      -0.96875932
H        -0.16767211       2.11971479      -1.36458159
H        -1.58055783       1.75042551      -2.32234761
H        -2.40690187      -0.27021307      -2.81769247
H        -3.05697485      -1.69372434      -2.05707213
H        -4.87822322      -0.71378886      -3.11521182
H        -5.15000694      -0.29245004      -1.43828570
H        -5.45006713       1.46720939      -3.40160648
H        -3.71213725       1.59352525      -3.37830994
H        -3.86369222       2.21880480      -0.89532825
H        -4.47755418       3.38482967      -2.04828045
H        -5.90748022       3.11466573      -0.02962120
H        -6.24987703       1.44780247      -0.46353054
H        -6.94539876       3.87085144      -2.20339309
H        -8.06574455       3.01757817      -1.12937533
H        -7.39771375       2.18528401      -2.53474012
H        -2.19537924      -1.35001903       1.02206326
H        -3.63159957      -1.81267166       0.12344886
H        -4.65476173       0.46675617       0.81941773
H        -3.23892672       0.72709285       1.79536674
H        -4.66496767       0.02055192       3.37226355
H        -3.55193166      -2.70628856       2.56067412
H        -4.16713336      -2.23361498       4.14785568
H        -2.71320252      -1.46329658       3.50483854
H        -6.61118686      -0.35787395       2.07037803
H        -6.41967769      -1.62408221       3.26578348
H        -5.85305997      -1.88207937       0.26292489
H        -5.52316292      -3.15002301       1.42285748
H        -7.83125915      -3.53179563       1.90825636
H        -9.99430095      -3.79544199       1.12177165
H       -10.14404736      -3.51881459      -0.61781129
H       -10.67363075      -2.27243778       0.53430677
H        -8.42643945      -1.82804838      -1.77370053
H        -7.44276162      -0.81374309      -0.70860900
H        -9.18723183      -0.62428789      -0.71259293
