89
lig_057 free ligand  charge=0 uhf=0  ETKDGv3 + MMFF94s  smiles=CCCCCCCCN(CC(C)C)C(=O)COCC(=O)N(CCCCCCCC)CC(C)C
C         9.20529227       3.39304162      -2.13115686
C         7.80630146       2.85400842      -1.87307136
C         7.70603063       1.37093270      -2.23219996
C         6.28734025       0.80537949      -2.10598997
C         5.78102396       0.75502407      -0.66187719
C         4.36106834       0.18880796      -0.53282891
C         4.27521946      -1.31065783      -0.82591463
C         2.85844008      -1.90313309      -0.75762325
N         2.25007488      -1.94884926       0.57811817
C         2.16180475      -3.25308326       1.25712120
C         3.44474696      -3.82485235       1.89297769
C         4.24223573      -2.80335493       2.69898055
C         4.32603588      -4.57702797       0.89589661
C         1.55942730      -0.80606597       1.01129275
O         1.44995846       0.19358675       0.29517186
C         0.92014261      -0.83654991       2.41857470
O         0.49094526       0.40383270       2.96416474
C        -0.70460839       0.90694359       2.38440036
C        -2.01499812       0.15123858       2.70063856
O        -2.02582376      -0.80073905       3.48630855
N        -3.18380266       0.59292141       2.07310329
C        -3.23138158       1.65849139       1.06544756
C        -2.93840384       1.16782735      -0.35895774
C        -4.00889713       0.27325336      -0.99376309
C        -5.33061145       1.00346497      -1.25741138
C        -6.39925092       0.09874030      -1.88345250
C        -6.14681320      -0.28737700      -3.34585871
C        -6.85529805       0.60425996      -4.37078311
C        -6.38221295       2.04741623      -4.37975330
C        -4.44310559      -0.06108981       2.43980692
C        -5.00428333       0.41144258       3.79569184
C        -6.20997553      -0.44717518       4.18350404
C        -5.40565749       1.88692558       3.77109091
H         9.25785602       4.45334233      -1.86475680
H         9.94887996       2.85523010      -1.53433659
H         9.47538139       3.29489655      -3.18744986
H         7.08490225       3.43050082      -2.46345012
H         7.56247152       3.00881825      -0.81688842
H         8.03598477       1.23290754      -3.26955706
H         8.39150950       0.78927824      -1.60382349
H         5.59925289       1.39854741      -2.72024837
H         6.29721429      -0.20546033      -2.52794183
H         6.47049019       0.16641114      -0.04480153
H         5.76934165       1.76858732      -0.24554883
H         3.68487941       0.74161011      -1.19518482
H         4.03404713       0.37116971       0.49675670
H         4.94654583      -1.83543840      -0.14297408
H         4.64955380      -1.50095799      -1.83789277
H         2.88148053      -2.92403732      -1.15634233
H         2.20107477      -1.33440672      -1.42674532
H         1.41029882      -3.19948982       2.04844898
H         1.74714618      -3.96740831       0.53431175
H         3.10751692      -4.59018869       2.60693234
H         4.60725829      -1.97977741       2.08110417
H         3.63032280      -2.38023583       3.50123746
H         5.11156694      -3.27664909       3.16833838
H         5.14484755      -5.08503109       1.41738219
H         3.74736786      -5.34388741       0.36987266
H         4.77260150      -3.92356852       0.14719730
H         1.67477958      -1.21438266       3.11357745
H         0.09102564      -1.54996347       2.40475488
H        -0.58270513       1.00099216       1.30494341
H        -0.82804214       1.91890985       2.78616812
H        -2.48482164       2.41509066       1.32652881
H        -4.20001486       2.16418303       1.12198170
H        -2.79049712       2.04427787      -1.00220658
H        -1.99312314       0.61349261      -0.36942577
H        -3.60469682      -0.09707371      -1.94267964
H        -4.18008929      -0.61096370      -0.37049245
H        -5.73382958       1.37998654      -0.31121302
H        -5.14682496       1.87858619      -1.88769514
H        -6.46119994      -0.81951840      -1.28535273
H        -7.37824561       0.58502820      -1.79401157
H        -6.53014533      -1.30565649      -3.49205695
H        -5.07681270      -0.33058838      -3.57207128
H        -6.68842210       0.17851951      -5.36777783
H        -7.93783975       0.57926113      -4.19852815
H        -6.67909425       2.56878373      -3.46530222
H        -5.29424106       2.10639938      -4.48227727
H        -6.83100437       2.58385437      -5.22212663
H        -4.25771947      -1.14178069       2.48202791
H        -5.18250708       0.09912614       1.64876650
H        -4.23892038       0.28483682       4.57110427
H        -6.60511236      -0.14581364       5.15944830
H        -7.01655341      -0.35533287       3.44805532
H        -5.92974427      -1.50376550       4.25003838
H        -5.84775790       2.18497079       4.72792760
H        -4.53655503       2.52980662       3.60017226
H        -6.14004261       2.08638791       2.98339535
