43
lig_155 free ligand  charge=0 uhf=0  ETKDGv3 + MMFF94s  smiles=CN(C(=O)COCC(=O)N(C)c1ccccc1)c1ccccc1
C         2.60795032      -2.12840161      -1.43073523
N         2.45003642      -1.26502035      -0.25627457
C         1.37144464      -1.43159522       0.64106896
O         1.14634820      -0.70064206       1.60865936
C         0.39079912      -2.59030080       0.32998785
O        -0.76868886      -2.72550208       1.13968122
C        -1.72680343      -1.68460527       0.96553425
C        -2.40550642      -1.58847375      -0.42204669
O        -2.36369108      -2.55114672      -1.19759140
N        -2.95663387      -0.36090905      -0.80933598
C        -3.24621927      -0.17486206      -2.22846948
C        -3.24043153       0.73396099       0.06058318
C        -3.81243201       0.53300671       1.32283946
C        -4.10515325       1.61545575       2.15844146
C        -3.84367683       2.91547205       1.73617143
C        -3.30266137       3.13464019       0.47306954
C        -3.01296893       2.05196395      -0.36254332
C         3.41310820      -0.19689030      -0.10196707
C         4.14605964       0.27569916      -1.20676370
C         5.09051953       1.30148163      -1.07654205
C         5.32856879       1.87667624       0.16542770
C         4.62309492       1.42397844       1.27368815
C         3.67833489       0.39839238       1.13965772
H         2.16560903      -3.11433970      -1.28032494
H         2.11733646      -1.65332246      -2.28585558
H         3.66816224      -2.30231664      -1.64196481
H         0.95429785      -3.51898999       0.47318169
H         0.09576769      -2.53828296      -0.72189767
H        -1.27702567      -0.72603368       1.23469161
H        -2.51477939      -1.90523637       1.69039643
H        -4.14852832       0.43151595      -2.35916352
H        -2.38919644       0.31423524      -2.70220154
H        -3.41185324      -1.13133867      -2.73287966
H        -4.09615672      -0.45836514       1.66212417
H        -4.55010991       1.44123154       3.13514661
H        -4.06923358       3.75631936       2.38702894
H        -3.09992971       4.14858262       0.13750012
H        -2.57250744       2.25996471      -1.33374607
H         3.98177660      -0.11625789      -2.20598444
H         5.63376781       1.65243856      -1.95016274
H         6.05988602       2.67320009       0.27091926
H         4.80504651       1.86087751       2.25245121
H         3.18627239       0.06373968       2.04820015
