113
lig_033 free ligand  charge=0 uhf=0  ETKDGv3 + MMFF94s  smiles=CCCCCCCCCCCCN(CCCC)C(=O)COCC(=O)N(CCCC)CCCCCCCCCCCC
C        12.00267219       4.96101608      -2.14655751
C        11.22940795       3.70815693      -2.52589799
C        10.61772076       3.03429935      -1.29792964
C         9.84060905       1.77461822      -1.68387590
C         9.22815341       1.09984908      -0.45441564
C         8.44797421      -0.15729084      -0.84415293
C         7.89964913      -0.93019865       0.35895713
C         6.92172103      -0.16183312       1.25394605
C         5.69464125       0.42394074       0.54905862
C         4.82167179      -0.63444963      -0.12910611
C         3.55340609      -0.01086414      -0.71796310
C         2.69818364      -1.01381747      -1.50153549
N         2.13332560      -2.07288984      -0.66154768
C         2.76481388      -3.39644046      -0.71232345
C         2.09291429      -4.35831439      -1.70079611
C         2.29802618      -4.03901352      -3.18353584
C         3.74365872      -4.17122269      -3.63821752
C         1.01862520      -1.75513699       0.11950472
O         0.48934338      -0.64174680       0.06492933
C         0.48739963      -2.83949351       1.08186847
O        -0.68371798      -2.51298023       1.81590410
C        -0.42994491      -1.63336834       2.90018218
C        -1.68904614      -1.30193694       3.71583550
O        -1.77097558      -1.70173343       4.88274648
N        -2.67806465      -0.50306457       3.13773292
C        -3.79685805      -0.07342569       3.98061144
C        -3.63795023       1.35319874       4.52111471
C        -2.46451950       1.50834540       5.48964842
C        -2.40584573       2.91341995       6.06924030
C        -2.64489166      -0.02521170       1.74930345
C        -3.28180970      -0.98081670       0.73108629
C        -4.80533304      -1.13503442       0.78825255
C        -5.56487291       0.16278261       0.50164329
C        -7.08788031       0.00906510       0.59034302
C        -7.67849609      -0.86151575      -0.52139714
C        -9.20085049      -1.01569776      -0.43060685
C       -10.01457404       0.27909163      -0.51972797
C        -9.78293752       1.05780598      -1.81704516
C       -10.71179736       2.27181311      -1.90468600
C       -10.44637567       3.15105503      -3.12861174
C       -10.74498171       2.45931046      -4.44970001
H        11.34939457       5.69352800      -1.66179852
H        12.43144016       5.42667601      -3.03943470
H        12.82197636       4.72368851      -1.46044453
H        10.43886222       3.97506767      -3.23688449
H        11.90333378       3.01057537      -3.03668706
H        11.41211472       2.77297002      -0.58820865
H         9.94790170       3.73771110      -0.78839057
H         9.04573583       2.03605269      -2.39302594
H        10.51080501       1.07174888      -2.19356695
H        10.02300610       0.83456141       0.25301798
H         8.56623031       1.81152601       0.05153005
H         9.11016198      -0.82936652      -1.40455911
H         7.63183026       0.10738574      -1.52605579
H         8.74191105      -1.26358763       0.97850921
H         7.41642677      -1.84489163      -0.00472823
H         6.58278537      -0.83724011       2.04980921
H         7.45499803       0.65166873       1.76003986
H         6.00536869       1.17645360      -0.18464529
H         5.09490984       0.95528828       1.29886800
H         4.55240363      -1.40221437       0.60515249
H         5.38368262      -1.12724531      -0.93009466
H         3.83669007       0.80133813      -1.39880056
H         2.96331775       0.44180874       0.08753286
H         3.28774244      -1.45693772      -2.30946329
H         1.86957827      -0.47262663      -1.97404637
H         2.71280479      -3.84329825       0.28494537
H         3.83050941      -3.27910383      -0.93194848
H         2.47226104      -5.36970253      -1.50796008
H         1.01446894      -4.39058908      -1.50996050
H         1.92235717      -3.03762210      -3.41736274
H         1.69102957      -4.73925635      -3.77066026
H         4.39169499      -3.43607837      -3.15361505
H         3.81241121      -4.01207148      -4.71918076
H         4.13316324      -5.17049889      -3.41917257
H         1.28451054      -3.12811014       1.77592389
H         0.22958667      -3.71680802       0.48313698
H         0.27726703      -2.11540926       3.58702381
H         0.03071152      -0.69849686       2.56698839
H        -3.92585634      -0.76556582       4.82021866
H        -4.71681177      -0.12822425       3.39369244
H        -4.56611085       1.62580670       5.03879303
H        -3.52138799       2.06055845       3.69188601
H        -1.51932345       1.30148936       4.97610961
H        -2.55861306       0.78649324       6.30893996
H        -3.31999077       3.14787256       6.62392892
H        -1.55897660       3.00458615       6.75658301
H        -2.28284076       3.65931458       5.27749318
H        -3.10867284       0.96443593       1.70291707
H        -1.60353867       0.13230509       1.46095630
H        -2.84945610      -1.98008365       0.83762311
H        -3.01100163      -0.63343938      -0.27414987
H        -5.10636333      -1.54964166       1.75583207
H        -5.08116516      -1.88600457       0.03881386
H        -5.29007927       0.54229584      -0.48987732
H        -5.27131910       0.93043646       1.22547632
H        -7.52247074       1.01361730       0.53576297
H        -7.35995465      -0.40210126       1.56989827
H        -7.24586927      -1.86699085      -0.47030471
H        -7.39928725      -0.45597239      -1.50039505
H        -9.52626026      -1.69147306      -1.23157152
H        -9.45037171      -1.51663513       0.51317163
H       -11.07734215       0.01560553      -0.44545812
H        -9.79819630       0.91944619       0.34295768
H        -8.74306162       1.39895940      -1.86882620
H        -9.95364466       0.39219243      -2.67035382
H       -10.58206663       2.88778582      -1.00610751
H       -11.75690049       1.93899435      -1.91139551
H       -11.07465964       4.04678191      -3.05501312
H        -9.40507216       3.49358470      -3.12346179
H       -11.77039281       2.07705798      -4.47048214
H       -10.63027057       3.16624627      -5.27773751
H       -10.06024918       1.62554266      -4.62998209
