75
lig_079 free ligand  charge=0 uhf=0  ETKDGv3 + MMFF94s  smiles=CCCCCCCCN(CCCCCCCC)C(=O)COCC(=O)N1CCCC1
C        -6.36157359      -5.48101385       3.26023107
C        -5.48991704      -6.10527055       2.18151492
C        -4.36277045      -5.18750782       1.70101423
C        -4.87084567      -3.92906258       0.99233535
C        -3.75390583      -3.11845476       0.32540546
C        -2.75382720      -2.53219210       1.32538101
C        -1.76580619      -1.55210899       0.68462409
C        -0.84984214      -2.20740003      -0.34834250
N         0.24196007      -1.32412102      -0.78208978
C         0.00098287      -0.48905485      -1.96581197
C         0.06839095       1.03124041      -1.76778428
C        -0.87637753       1.56465828      -0.69197365
C        -0.77784103       3.08151966      -0.48941595
C        -1.30373634       3.88980176      -1.67811060
C        -1.20150073       5.40580569      -1.47576322
C        -1.98816547       5.97751760      -0.29379589
C        -3.48193896       5.70314669      -0.36662161
C         1.46142121      -1.44825733      -0.10971123
O         1.57558568      -2.17069546       0.88536513
C         2.67427519      -0.66280852      -0.64754373
O         3.94412208      -1.11556921      -0.18368846
C         4.26762815      -0.60876711       1.10716708
C         4.76543698       0.84355701       1.08749739
O         4.13035777       1.73821771       1.64945433
N         5.94035051       1.09544887       0.41276373
C         6.75683300       0.13032649      -0.30694861
C         8.04423343       0.88400844      -0.61169422
C         7.56991126       2.32580344      -0.74928877
C         6.49489240       2.43329436       0.32229607
H        -5.75725210      -5.14677462       4.10942034
H        -6.92340439      -4.62461303       2.87610980
H        -7.08642057      -6.21433975       3.62813264
H        -5.04325378      -7.02315226       2.58209766
H        -6.11674929      -6.40278035       1.33285339
H        -3.73622671      -4.91189220       2.55694777
H        -3.72760824      -5.75707681       1.01153441
H        -5.59188057      -4.21870854       0.21803575
H        -5.40622725      -3.28656296       1.70065184
H        -3.23390438      -3.75410125      -0.40038246
H        -4.21638807      -2.30121248      -0.24167998
H        -2.19329869      -3.33642957       1.81535809
H        -3.30159215      -2.00039757       2.11301466
H        -2.32332978      -0.73258010       0.21941340
H        -1.15806238      -1.10647300       1.48176254
H        -1.41437620      -2.52221677      -1.23293313
H        -0.42206667      -3.12268110       0.07800507
H         0.73164680      -0.78121355      -2.72817593
H        -0.98534060      -0.73798352      -2.37530879
H        -0.17884054       1.49028261      -2.73205638
H         1.08797479       1.35062843      -1.54225596
H        -1.91012431       1.29540005      -0.93717978
H        -0.63250203       1.09110681       0.26541182
H         0.26253280       3.35891542      -0.28128389
H        -1.35828397       3.33123847       0.40594370
H        -0.72673830       3.64111459      -2.57586159
H        -2.34122336       3.60794015      -1.89054104
H        -1.54083591       5.89878925      -2.39553434
H        -0.14549081       5.67742876      -1.35380193
H        -1.83453727       7.06337764      -0.27278285
H        -1.59071798       5.59370451       0.65196078
H        -3.90058905       6.05479680      -1.31481717
H        -3.69866788       4.63560396      -0.26594455
H        -3.99930295       6.22360453       0.44576822
H         2.54810315       0.39526609      -0.40550770
H         2.70061818      -0.76790376      -1.73513307
H         3.41596910      -0.68224102       1.79208756
H         5.06087596      -1.23621778       1.52639020
H         6.22932824      -0.13911398      -1.22806782
H         6.92826505      -0.77072143       0.28728476
H         8.54919336       0.51151582      -1.50701918
H         8.73709547       0.80180917       0.23446294
H         7.12768951       2.47641069      -1.74152652
H         8.37277821       3.05590852      -0.61639056
H         6.92468701       2.68431633       1.29835588
H         5.72014521       3.16616657       0.07774656
