85
lig_049 free ligand  charge=0 uhf=0  ETKDGv3 + MMFF94s  smiles=CCCCCCCCN(C)C(=O)C(CCCCCC)C(=O)N(C)CCCCCCCC
C        -9.74200674      -5.18745701       0.82982459
C        -9.10686976      -3.92107255       0.27580829
C        -9.06187446      -2.81363681       1.32928858
C        -8.53550512      -1.48071233       0.78940500
C        -7.06489292      -1.53340061       0.36662284
C        -6.56140949      -0.14869410      -0.04967127
C        -5.13053866      -0.16192803      -0.59334501
C        -4.08656808      -0.55198133       0.45551688
N        -2.72573613      -0.43521380      -0.07297612
C        -2.18029823      -1.62179789      -0.71465012
C        -2.04437797       0.76563989       0.12963804
O        -2.62240577       1.74259797       0.61626724
C        -0.58109331       0.86206059      -0.32823149
C        -0.07482552       2.31619424      -0.17119348
C         1.25080794       2.59398082      -0.88664158
C         1.70190949       4.04299956      -0.68686280
C         2.95676570       4.40560352      -1.48763535
C         4.19537049       3.60496839      -1.08212674
C         5.43922364       4.10370211      -1.80162964
C         0.30605624      -0.06812112       0.49825462
O         0.11798039      -0.17763116       1.71381653
N         1.32689912      -0.78542506      -0.12760952
C         1.63582859      -0.78684985      -1.55212797
C         2.13232342      -1.68578717       0.70469257
C         3.17944594      -0.96722203       1.56636096
C         4.26292908      -0.20744168       0.79585111
C         5.21692175      -1.12061667       0.02337299
C         6.21346323      -0.35031441      -0.85043945
C         7.12107855       0.64170737      -0.11736700
C         8.00083139      -0.01169914       0.94827713
C         8.95839566       0.99425746       1.56865070
H       -10.77179628      -5.00203848       1.15151978
H        -9.76155485      -5.96819952       0.06299896
H        -9.17667156      -5.56688639       1.68702298
H        -9.67942243      -3.58380978      -0.59583731
H        -8.09551233      -4.15989715      -0.06975743
H       -10.07443820      -2.64825827       1.71812957
H        -8.44698754      -3.13493692       2.17885063
H        -9.15347728      -1.15772500      -0.05723355
H        -8.65490201      -0.72349324       1.57435874
H        -6.94001141      -2.22683973      -0.47224125
H        -6.46583134      -1.91538023       1.20052668
H        -6.62461251       0.54052466       0.80118772
H        -7.22005797       0.25211645      -0.83020853
H        -4.89936150       0.83971913      -0.97732861
H        -5.06921404      -0.83994893      -1.45322057
H        -4.22957234      -1.58371231       0.79507703
H        -4.19272446       0.09103747       1.33694075
H        -2.94888107      -2.08112238      -1.34315864
H        -1.32129930      -1.39573456      -1.34470923
H        -1.88066017      -2.32818413       0.06485789
H        -0.58977998       0.61113433      -1.38943036
H         0.03331274       2.55751829       0.89470657
H        -0.82661682       3.00886695      -0.57171378
H         2.02087070       1.92342110      -0.49858622
H         1.13831820       2.39144785      -1.95783562
H         1.88201496       4.22877120       0.37904853
H         0.89369837       4.71860231      -0.99312624
H         2.76153375       4.26375812      -2.55767550
H         3.15573425       5.47482294      -1.34307380
H         4.05728682       2.54584316      -1.32299989
H         4.35168206       3.67816340       0.00017460
H         5.32561640       4.01637106      -2.88687881
H         6.31193725       3.51473897      -1.50306139
H         5.63898421       5.15238649      -1.55957020
H         1.33125803      -1.75283336      -1.96586193
H         1.13417830       0.00229813      -2.10624982
H         2.71257482      -0.66195301      -1.69017821
H         2.59796287      -2.44565796       0.06783721
H         1.45021776      -2.22583927       1.37345955
H         2.67534569      -0.25327314       2.22860085
H         3.65915327      -1.70619397       2.22003670
H         4.83828884       0.37451475       1.52558949
H         3.80302276       0.51683670       0.11748569
H         4.64796226      -1.78525457      -0.63568762
H         5.75370021      -1.77111187       0.72327086
H         6.83955469      -1.07685317      -1.38333179
H         5.65612509       0.19747784      -1.62088361
H         6.52020461       1.43996943       0.33328805
H         7.76320298       1.12714646      -0.86330513
H         8.57785346      -0.83103650       0.50438841
H         7.38161214      -0.44094280       1.74312314
H         9.62462052       1.42066766       0.81191738
H         9.57663745       0.50894032       2.33034352
H         8.41109148       1.81331235       2.04615305
