58
lig_167 free ligand  charge=0 uhf=0  ETKDGv3 + MMFF94s  smiles=O=C(c1cc(Cl)c2ccc3c(Cl)cc(C(=O)N4CCc5ccccc54)nc3c2n1)N1CCc2ccccc21
O        -1.11542653      -0.96336761      -4.53136822
C        -1.34659771      -0.81644780      -3.32698193
C        -1.22299967      -2.02420666      -2.47348427
C        -1.78375438      -3.19970954      -2.91645493
C        -1.60293550      -4.32284757      -2.12696205
Cl       -2.33813183      -5.79005929      -2.68658450
C        -0.85317451      -4.26676794      -0.92858803
C        -0.64598718      -5.38075700      -0.09627283
C         0.10569264      -5.26884916       1.06546772
C         0.68161057      -4.03998683       1.43192494
C         1.46251995      -3.86121386       2.59547532
Cl        1.77968711      -5.16051447       3.69923765
C         2.01772366      -2.62966774       2.90772627
C         1.78008493      -1.57805218       2.04753150
C         2.41067026      -0.24235923       2.34558771
O         3.23893831      -0.22992295       3.26083146
N         2.04863182       0.88877640       1.61717083
C         1.01094948       0.98615889       0.56775289
C         0.86572488       2.46381882       0.19069118
C         2.00289224       3.08846805       0.92740265
C         2.40330171       4.41636030       0.87652411
C         3.47268257       4.81714784       1.67674046
C         4.11601438       3.89445633       2.51270236
C         3.69924765       2.55933062       2.55750343
C         2.63889558       2.16458640       1.75776464
N         1.03119571      -1.72185919       0.93160549
C         0.48261024      -2.91465271       0.60555153
C        -0.28800678      -3.02275340      -0.56692902
N        -0.48577838      -1.92797623      -1.34113320
N        -1.69415833       0.41702829      -2.79690903
C        -1.57426609       1.61662916      -3.63497506
C        -1.83737090       2.82766883      -2.74026353
C        -2.41241280       2.17859637      -1.52155325
C        -2.98132345       2.82049961      -0.43055112
C        -3.45118980       2.04013262       0.62334373
C        -3.35439015       0.64389797       0.56608564
C        -2.77903025       0.00864377      -0.54158008
C        -2.28844996       0.78528320      -1.57659606
H        -2.33756808      -3.23558553      -3.84857129
H        -1.06522804      -6.35558075      -0.34065088
H         0.23889742      -6.16017235       1.67663233
H         2.62634888      -2.49691267       3.79677783
H         1.34186699       0.40761173      -0.30215993
H         0.06403323       0.58027347       0.93724049
H        -0.08360441       2.86875790       0.55292105
H         0.94450462       2.60967249      -0.89020685
H         1.89677258       5.12980775       0.23480198
H         3.80866696       5.85086233       1.65625597
H         4.94835711       4.21669746       3.13369042
H         4.21709629       1.86504963       3.20920065
H        -0.58485147       1.65520889      -4.10430354
H        -2.32207947       1.54472647      -4.43481202
H        -0.90454547       3.34312644      -2.49113071
H        -2.53331507       3.52902542      -3.20923537
H        -3.05918195       3.90260156      -0.39349077
H        -3.90103323       2.51510813       1.49211083
H        -3.73645696       0.04562398       1.39026503
H        -2.75236938      -1.07141446      -0.55441400
