119
lig_068 free ligand  charge=0 uhf=0  ETKDGv3 + MMFF94s  smiles=CCCCCCCCN(CCCCCCCC)C(=O)CCOCCC(=O)N(CCCCCCCC)CCCCCCCC
C         8.07376093      -6.82890719      -3.74735216
C         9.04213805      -5.89394597      -3.03945971
C         8.36857948      -4.97666394      -2.01660567
C         7.40353454      -3.97030740      -2.64747782
C         6.83997354      -3.00963216      -1.59666311
C         5.86960057      -2.00767068      -2.22619933
C         5.36578976      -0.95065416      -1.23950513
C         4.48812081      -1.53346807      -0.12626558
N         3.90365797      -0.50034209       0.73731407
C         4.50800868      -0.30303481       2.06170191
C         5.92118420       0.28490366       2.02642866
C         5.96077111       1.70662049       1.46193236
C         7.38929479       2.25352812       1.43759933
C         7.43052041       3.67498828       0.87205784
C         8.85982421       4.22112493       0.85051132
C         8.97225884       5.59956024       0.19581885
C         8.25556131       6.69803620       0.96569772
C         2.78413222       0.18271052       0.25611206
O         2.31950051      -0.05206414      -0.86051584
C         2.16498307       1.23114502       1.16584313
C         0.97688309       1.95675103       0.54076609
O        -0.26894009       1.38125978       0.94832605
C        -0.65776722       0.26398331       0.14227083
C        -2.07357583      -0.14429234       0.52775194
C        -3.13419654       0.71265549      -0.14894043
O        -2.86052506       1.43555789      -1.10885491
N        -4.44717079       0.58947783       0.31717303
C        -5.48862584       1.34058884      -0.38648120
C        -5.92160704       0.69472061      -1.70936515
C        -6.62287622      -0.65303457      -1.51953546
C        -7.06472985      -1.29881625      -2.83763521
C        -8.16616939      -0.51615431      -3.55745233
C        -8.76833877      -1.27339993      -4.74557740
C        -7.77324398      -1.50748515      -5.88284595
C        -8.44441778      -2.16233622      -7.08058390
C        -4.84859800      -0.22680233       1.46778938
C        -4.70039541       0.49850392       2.81160303
C        -5.74139226       1.58558691       3.09937587
C        -7.19761349       1.11187417       3.16901041
C        -7.48915388       0.01055448       4.19321563
C        -7.12048896       0.34021705       5.64332855
C        -7.78197517       1.59171932       6.22542420
C        -9.30073546       1.51934094       6.25130547
H         7.37312067      -6.27690268      -4.38051365
H         7.49921506      -7.41920198      -3.02660705
H         8.62459537      -7.52267442      -4.39065413
H         9.57895794      -5.29347971      -3.78303976
H         9.79366826      -6.50018839      -2.51967800
H         7.83733439      -5.58301588      -1.27283912
H         9.15304964      -4.43135079      -1.47726313
H         7.92504238      -3.39924779      -3.42501405
H         6.57396034      -4.49774301      -3.13155700
H         7.66320601      -2.46971865      -1.11345047
H         6.33019198      -3.58961685      -0.81936413
H         6.37473454      -1.49074935      -3.05165056
H         5.01624368      -2.54050284      -2.66296392
H         6.22109208      -0.41729318      -0.81156678
H         4.79607121      -0.20255634      -1.80371626
H         5.05757745      -2.22796828       0.50011663
H         3.66805032      -2.10816948      -0.57402673
H         3.87935992       0.32796068       2.69329870
H         4.53582439      -1.28528741       2.54884864
H         6.58854345      -0.36652991       1.45179001
H         6.31215123       0.29898233       3.05156846
H         5.32933079       2.36051614       2.07528141
H         5.55098311       1.72141042       0.44566451
H         7.80212787       2.25010440       2.45371031
H         8.02250666       1.59717131       0.82824067
H         7.02077259       3.67698091      -0.14520122
H         6.79031444       4.32189811       1.48224180
H         9.25433358       4.26644561       1.87294609
H         9.50113899       3.52541336       0.29521315
H        10.03421565       5.86276060       0.12184618
H         8.58408340       5.55914808      -0.82855451
H         8.60042785       6.74004968       2.00363953
H         8.45347038       7.67054941       0.50350831
H         7.17221068       6.54685582       0.96599275
H         2.94539210       1.97097864       1.37436458
H         1.85601495       0.75195336       2.10064768
H         1.03280523       2.04938578      -0.54954426
H         0.96219108       2.97771100       0.93911223
H         0.01523070      -0.56973110       0.36694146
H        -0.57695454       0.50713500      -0.92260755
H        -2.17862031      -0.08853578       1.61369507
H        -2.24905490      -1.17642921       0.20333646
H        -6.35607010       1.47147748       0.26635291
H        -5.10027543       2.34399552      -0.59960536
H        -5.05583603       0.56331107      -2.36860612
H        -6.60012107       1.39393759      -2.21053610
H        -5.93887833      -1.35068894      -1.02248934
H        -7.49040179      -0.53191008      -0.85973608
H        -7.43029142      -2.30907333      -2.61588524
H        -6.19221547      -1.41252177      -3.49093159
H        -8.97335582      -0.29652817      -2.84789965
H        -7.77924072       0.44738396      -3.90755766
H        -9.61752418      -0.69211385      -5.12612836
H        -9.17270579      -2.23376063      -4.40312439
H        -6.95397092      -2.15132550      -5.54562849
H        -7.33247929      -0.55375605      -6.19507125
H        -9.24703631      -1.53090422      -7.47483094
H        -7.71601129      -2.32446801      -7.88126816
H        -8.87203492      -3.13259299      -6.80836992
H        -5.87145109      -0.58532991       1.31772875
H        -4.21980713      -1.12280660       1.48921196
H        -3.70953077       0.96341655       2.87318490
H        -4.73327517      -0.24846806       3.61297838
H        -5.66323788       2.37379808       2.34168008
H        -5.47810388       2.06806930       4.04846522
H        -7.83276601       1.98043952       3.38049125
H        -7.51517620       0.75349338       2.18347585
H        -8.55595127      -0.23810267       4.13914802
H        -6.96214591      -0.90552147       3.90053094
H        -6.03289028       0.44839535       5.72834855
H        -7.38572909      -0.52188246       6.26850425
H        -7.46766223       2.48363208       5.67282202
H        -7.42308070       1.72332145       7.25346326
H        -9.70959909       2.39514838       6.76540348
H        -9.71899078       1.50383934       5.24064355
H        -9.64260535       0.62518072       6.78200148
