94
lig_124 free ligand  charge=0 uhf=0  ETKDGv3 + MMFF94s  smiles=CCCCCc1nnc(-c2cccc(-c3cccc(-c4nnc(CCCCC)c(CCCCC)n4)n3)n2)nc1CCCCC
C        -8.53130932      -3.65688363       3.47421741
C        -9.14637547      -2.55873960       2.62137171
C        -8.37383764      -2.36445495       1.31616966
C        -8.99690261      -1.25472707       0.46294606
C        -8.30545942      -1.08112539      -0.89398960
C        -6.89007106      -0.58755942      -0.79811637
N        -5.93256747      -1.52246875      -0.97491186
N        -4.61990529      -1.17026232      -0.87145547
C        -4.29501842       0.10809850      -0.58361435
C        -2.86320222       0.46721086      -0.47041919
C        -2.45108822       1.77123417      -0.19102019
C        -1.09317153       2.05495660      -0.09597946
C        -0.17071752       1.03179118      -0.28162071
C        -0.62311384      -0.25701263      -0.55915824
C         0.30590500      -1.39361599      -0.76799962
C        -0.14545254      -2.68235602      -1.04596446
C         0.77809632      -3.70456336      -1.23099946
C         2.13619087      -3.42072191      -1.13493818
C         2.54788178      -2.11652051      -0.85504070
C         3.97968048      -1.75201365      -0.73980938
N         4.89861388      -2.72932624      -0.90780813
N         6.22392979      -2.43237778      -0.80286869
C         6.60320896      -1.16394086      -0.53267158
C         8.08428311      -0.93824799      -0.41771689
C         8.65279885      -1.57897747       0.85262396
C        10.12727362      -1.24157199       1.09500298
C        11.09490026      -1.66873828      -0.01102421
C        11.09749813      -3.16700067      -0.27059092
C         5.63267946      -0.18207125      -0.37772238
C         5.94321751       1.26151381      -0.07472469
C         6.17804948       1.49611661       1.41913050
C         6.31380101       2.97729441       1.78614094
C         7.47552177       3.72033892       1.12228886
C         8.83953825       3.13609761       1.45398316
N         4.31184907      -0.47039130      -0.47355390
N         1.63546291      -1.11742757      -0.67449080
N        -1.95312896      -0.53228272      -0.65170797
N        -5.21791165       1.07871502      -0.39436387
C        -6.52146901       0.72413957      -0.52174345
C        -7.52553115       1.82356411      -0.27054065
C        -7.14241971       3.18692246      -0.86532157
C        -6.99730521       3.21603236      -2.39245565
C        -8.22804415       2.77273619      -3.18673369
C        -9.46309925       3.61738828      -2.91629456
H        -9.09910958      -3.77923677       4.40186445
H        -8.53623104      -4.61455200       2.94395963
H        -7.49679339      -3.41541756       3.73845689
H       -10.18942403      -2.81535189       2.40262775
H        -9.15489464      -1.62261760       3.19174392
H        -8.36774581      -3.30392563       0.75028529
H        -7.33122584      -2.11859126       1.54889084
H       -10.05075500      -1.49864391       0.27902626
H        -8.98544634      -0.31321037       1.02401168
H        -8.88843227      -0.40136539      -1.52551802
H        -8.31455722      -2.04256113      -1.42433075
H        -3.17912878       2.56479543      -0.04782136
H        -0.75473534       3.06406315       0.12071571
H         0.89385178       1.23949370      -0.21014035
H        -1.20959875      -2.89224913      -1.11859432
H         0.43986794      -4.71388213      -1.44822866
H         2.86098442      -4.21731499      -1.27888069
H         8.55748025      -1.37841370      -1.30382154
H         8.33423214       0.12559397      -0.44078482
H         8.08007931      -1.23633139       1.72383566
H         8.51985793      -2.66709646       0.81892037
H        10.22444440      -0.15881186       1.24184545
H        10.43815213      -1.70802521       2.03820800
H        10.87025770      -1.13608475      -0.94155443
H        12.10720110      -1.36433701       0.28150833
H        11.29713411      -3.72499296       0.64963063
H        11.87669747      -3.42095085      -0.99643795
H        10.14108303      -3.50464599      -0.68048138
H         6.79339130       1.59688820      -0.67666542
H         5.09333086       1.87459262      -0.40311424
H         5.33348569       1.08378294       1.98702247
H         7.06265173       0.94734986       1.75876291
H         5.37993900       3.49378718       1.53145066
H         6.42023849       3.05492309       2.87544799
H         7.34227219       3.74549529       0.03534827
H         7.45297220       4.76378481       1.45953818
H         8.98872604       3.07467587       2.53652936
H         8.96023907       2.13548566       1.03004274
H         9.63034622       3.76875720       1.03829158
H        -7.62376814       1.93258362       0.81690926
H        -8.51799248       1.55327350      -0.64014743
H        -7.89624656       3.92259616      -0.55983831
H        -6.19841996       3.53070735      -0.42342895
H        -6.14829638       2.58930503      -2.69060787
H        -6.73516138       4.23907697      -2.69087595
H        -8.45333504       1.71975478      -2.98764633
H        -7.98905040       2.83898095      -4.25516545
H        -9.25904561       4.67864947      -3.08980066
H        -9.81534901       3.49564791      -1.88785086
H       -10.27745236       3.31579392      -3.58289882
