137
lig_034 free ligand  charge=0 uhf=0  ETKDGv3+randomCoords + MMFF94s  smiles=CCCCCCCCCCCCN(CCCCCCCC)C(=O)COCC(=O)N(CCCCCCCC)CCCCCCCCCCCC
C         6.24191789      -3.04012418       5.85916378
C         5.70673061      -1.70994153       6.36499861
C         4.70679409      -1.04815927       5.41360344
C         3.45272804      -1.86566464       5.08349618
C         2.56830900      -2.13359460       6.30318336
C         1.35068507      -3.01626987       6.00397385
C         0.07597086      -2.26460679       5.60582902
C         0.06322160      -1.60036943       4.22826221
C         0.40246306      -2.50543428       3.03930891
C        -0.51583218      -3.72078107       2.90367903
C        -0.16348256      -4.63219950       1.72094124
C        -0.73043731      -4.19194919       0.36743820
N        -0.02822885      -3.07562168      -0.26974970
C         1.31900470      -3.32050008      -0.79486630
C         2.40352191      -2.64202836       0.04837240
C         3.75898382      -2.55295252      -0.65636021
C         3.76732195      -1.51775604      -1.78581035
C         5.17924655      -1.30373766      -2.33483150
C         5.22480548      -0.36652320      -3.54601600
C         4.65690005       1.03740182      -3.32317066
C         5.35587822       1.81077970      -2.21650168
C        -0.60923925      -1.84353237      -0.56076319
O        -0.03559836      -1.00409950      -1.26206190
C        -2.00289776      -1.53004967      -0.00734021
O        -3.03756389      -2.10757531      -0.79082903
C        -3.33316668      -1.34155092      -1.95575182
C        -4.15579365      -0.06597429      -1.67844398
O        -5.19262678      -0.15622162      -1.01181724
N        -3.72730419       1.15730076      -2.20603172
C        -4.68126467       2.27117685      -2.15380810
C        -5.35343180       2.59184776      -3.49639166
C        -6.34931589       1.53328964      -3.98696748
C        -5.70798920       0.46875888      -4.88341584
C        -6.72727291      -0.53061631      -5.43842014
C        -7.18647602      -0.27215211      -6.87901054
C        -8.05530956       0.97041576      -7.08297937
C        -7.26597151       2.19354217      -7.52619426
C        -2.44029182       1.33955652      -2.90430225
C        -1.88179816       2.76875748      -2.92475803
C        -0.54613521       2.89076937      -3.66361855
C         0.67263262       2.27356473      -2.96927263
C         1.01390332       2.91526367      -1.61829319
C         0.59119639       2.04432988      -0.43411969
C         0.80847460       2.75585208       0.90142318
C         0.42335389       1.84904965       2.07301219
C         0.47273021       2.55490529       3.43117593
C         1.82492414       3.15990048       3.81883991
C         2.95231515       2.13084967       3.89382721
C         4.25040081       2.76680524       4.36723602
H         6.66695277      -2.93736776       4.85578413
H         7.03031153      -3.40525603       6.52524064
H         5.45729882      -3.80179169       5.82811185
H         6.55226865      -1.02494517       6.50305073
H         5.25994935      -1.84781097       7.35540339
H         5.22055057      -0.81262864       4.47301335
H         4.40205429      -0.08835652       5.84777978
H         2.88691235      -1.30569775       4.33370027
H         3.73649592      -2.81202655       4.60978186
H         2.25310561      -1.18765807       6.75877838
H         3.16674006      -2.65933855       7.05635427
H         1.11203629      -3.55540552       6.93092433
H         1.60103998      -3.78968595       5.27002621
H        -0.76401509      -2.96833564       5.66075016
H        -0.13678872      -1.49775302       6.36156259
H         0.75059145      -0.74764056       4.23199164
H        -0.93466705      -1.17263055       4.06598728
H         1.44139036      -2.84168822       3.11521319
H         0.33984232      -1.89121255       2.13699605
H        -1.56278226      -3.40345232       2.84069437
H        -0.43015394      -4.32813431       3.81233808
H         0.91892398      -4.78871482       1.66678658
H        -0.60080424      -5.61599419       1.93779090
H        -0.66414876      -5.03418461      -0.33307015
H        -1.79769871      -3.98466842       0.46964130
H         1.50199913      -4.40009282      -0.84438384
H         1.34238594      -2.95235587      -1.82578649
H         2.09119670      -1.63542113       0.35128891
H         2.53438664      -3.21159995       0.97514040
H         4.04790771      -3.53719710      -1.04344438
H         4.51183516      -2.26990962       0.08991858
H         3.37039438      -0.57026397      -1.40425039
H         3.10964243      -1.84206421      -2.59941160
H         5.83140109      -0.91965015      -1.54178714
H         5.59867029      -2.27162467      -2.63696283
H         6.26728450      -0.27984056      -3.87694446
H         4.67720317      -0.83256357      -4.37475698
H         4.75526288       1.60118098      -4.25879204
H         3.58438596       0.98281181      -3.10913393
H         4.96971737       2.83427290      -2.17257999
H         5.18707955       1.35197915      -1.23784910
H         6.43458104       1.86267400      -2.39428979
H        -2.08728378      -1.91056290       1.01364402
H        -2.11907994      -0.44239480       0.06961392
H        -2.43321522      -1.18032214      -2.54826756
H        -3.97949829      -1.96924795      -2.58155933
H        -5.46394777       2.07353207      -1.41276393
H        -4.15576465       3.15537622      -1.77840022
H        -5.91296510       3.52531920      -3.35179383
H        -4.61026319       2.79803008      -4.27377352
H        -7.13065414       2.04953367      -4.55416459
H        -6.85302036       1.05978079      -3.13608730
H        -5.14097370       0.93315345      -5.69771960
H        -4.98109783      -0.09513978      -4.29215805
H        -7.59671849      -0.61172726      -4.77509968
H        -6.25252012      -1.52096392      -5.43429067
H        -6.32125705      -0.25628281      -7.55261216
H        -7.78520110      -1.14318403      -7.17708100
H        -8.63510333       1.19533975      -6.18148936
H        -8.78530030       0.75211265      -7.87272280
H        -6.74135093       1.99830778      -8.46717335
H        -6.52676853       2.49947079      -6.78320553
H        -7.94384993       3.03745471      -7.69006052
H        -2.58319442       0.97695904      -3.92867583
H        -1.70233799       0.69484691      -2.42546787
H        -1.79140353       3.15528816      -1.90398410
H        -2.58746048       3.42975707      -3.43955459
H        -0.64599483       2.44368971      -4.66059422
H        -0.34329519       3.95692629      -3.82856138
H         0.55722595       1.18856199      -2.87726554
H         1.52860821       2.42932854      -3.63875241
H         0.57036846       3.91466725      -1.54039469
H         2.10141209       3.05369525      -1.56363802
H        -0.46308617       1.76359959      -0.52482806
H         1.17892441       1.11913785      -0.44655419
H         1.86041312       3.05117324       0.98407392
H         0.20718876       3.67237663       0.93029690
H        -0.59853056       1.47826312       1.92190074
H         1.06986375       0.96378681       2.08479222
H         0.16778446       1.83984155       4.20529947
H        -0.27804938       3.35500600       3.44041406
H         2.09434999       3.95805413       3.11757673
H         1.71286171       3.63982470       4.79939313
H         3.12356273       1.67757162       2.91171839
H         2.67202412       1.32565939       4.58180563
H         4.13798349       3.18662102       5.37189833
H         5.05008570       2.02049484       4.39867962
H         4.56291308       3.56943207       3.69158179
