119
lig_065 free ligand  charge=0 uhf=0  ETKDGv3 + MMFF94s  smiles=CCCCCCCCN(CCCCCCCC)C(=O)C(C)OC(C)C(=O)N(CCCCCCCC)CCCCCCCC
C        -7.75303857       6.48474401      -0.51142250
C        -8.03778458       5.11093776      -1.09830902
C        -8.30693516       4.03836455      -0.04067771
C        -7.09173344       3.73793748       0.84074838
C        -7.37815350       2.57779387       1.79749679
C        -6.23644723       2.29920298       2.78041802
C        -4.87839244       1.97791795       2.15064358
C        -4.91124703       0.76143624       1.22116728
N        -3.57662225       0.45305594       0.70036284
C        -3.18786411       1.10719441      -0.55246559
C        -3.39624032       0.27169007      -1.82542166
C        -4.85111463      -0.00341134      -2.21580244
C        -5.47402406      -1.27662748      -1.62797746
C        -4.81942028      -2.57894504      -2.11013276
C        -3.97875213      -3.24961993      -1.01883287
C        -3.20864338      -4.47476217      -1.51610002
C        -4.10677644      -5.62502101      -1.94345319
C        -2.75631147      -0.36387944       1.47603871
O        -3.18608620      -0.91245169       2.50015019
C        -1.25146754      -0.52140474       1.13939203
C        -0.49589473       0.68336181       1.70129569
O        -0.99288133      -0.78047303      -0.23220738
C         0.35787292      -1.11970062      -0.55523312
C         0.27750576      -2.09096848      -1.72682814
C         1.17913491       0.12480506      -0.97734315
O         0.59986292       1.14357661      -1.37131985
N         2.57036087       0.09308862      -0.85924210
C         3.37999391      -1.09088172      -0.54582697
C         4.09383843      -1.64136471      -1.78591438
C         4.75580074      -3.00208728      -1.54900754
C         5.87289212      -2.95449949      -0.50154860
C         6.62465997      -4.28461670      -0.37366226
C         7.95010464      -4.34397150      -1.14126259
C         7.80247712      -4.23481427      -2.65732802
C         9.13437332      -4.44698242      -3.36136079
C         3.29342852       1.34437607      -1.11176510
C         3.16907480       2.35974116       0.03189467
C         3.78707186       1.86754873       1.34322867
C         3.72402142       2.94829721       2.42463897
C         4.20480091       2.46521335       3.79645768
C         5.64386271       1.94383491       3.85451456
C         6.68529104       2.98345144       3.44008439
C         8.09964621       2.45392488       3.62172817
H        -6.81442637       6.49455303       0.05023340
H        -7.66604579       7.22474723      -1.31353320
H        -8.56030014       6.80223920       0.15606474
H        -8.91772131       5.18562014      -1.74838591
H        -7.19917276       4.80529516      -1.73473781
H        -8.61203614       3.11901866      -0.55589627
H        -9.15290974       4.34481237       0.58656239
H        -6.82168012       4.62529577       1.42382750
H        -6.23774837       3.49363901       0.19926312
H        -7.60810435       1.67184412       1.22481897
H        -8.27886667       2.80757954       2.38074456
H        -6.53355253       1.46454904       3.42760973
H        -6.11492700       3.16925690       3.43771996
H        -4.16013599       1.79680802       2.96049629
H        -4.49901506       2.85280326       1.60989376
H        -5.58309000       0.94103520       0.37822152
H        -5.30176879      -0.10548806       1.76627881
H        -2.13538624       1.39008317      -0.49605311
H        -3.73998095       2.05129602      -0.63628501
H        -2.94986443       0.85048301      -2.64540988
H        -2.83372375      -0.66189095      -1.78660193
H        -5.47557933       0.86066007      -1.96023584
H        -4.89756935      -0.08850845      -3.30972653
H        -5.49741890      -1.23933451      -0.53622801
H        -6.52362042      -1.29190247      -1.95000490
H        -4.21262194      -2.40303797      -3.00583744
H        -5.61937970      -3.26879990      -2.40473971
H        -3.25365473      -2.53478415      -0.61800340
H        -4.62638698      -3.53854896      -0.18188153
H        -2.55685120      -4.19176550      -2.35076912
H        -2.55469787      -4.82473912      -0.70838994
H        -3.50030542      -6.50059033      -2.19664319
H        -4.69778485      -5.36571848      -2.82667017
H        -4.79189134      -5.90896387      -1.13847126
H        -0.93527991      -1.41299161       1.69878430
H        -0.81972727       0.91307588       2.72206751
H         0.58093887       0.49045677       1.73206402
H        -0.64237463       1.57979203       1.09271005
H         0.81382953      -1.61557854       0.30545610
H        -0.35523994      -2.94712040      -1.46943539
H        -0.17885104      -1.61165558      -2.60065394
H         1.25903972      -2.46701498      -2.02129823
H         4.10820934      -0.80230047       0.21921544
H         2.76273367      -1.87760127      -0.11173622
H         4.85012820      -0.92844809      -2.13479510
H         3.37509315      -1.74419243      -2.60755028
H         5.15097250      -3.35693255      -2.50613590
H         3.99457489      -3.72888784      -1.23940195
H         5.42092437      -2.73187565       0.47269772
H         6.57023321      -2.13691530      -0.71808250
H         5.98292952      -5.12478264      -0.66447985
H         6.86407943      -4.43478838       0.68713811
H         8.61520442      -3.54971500      -0.77999154
H         8.43992232      -5.29486911      -0.89610262
H         7.42089138      -3.24494380      -2.92891117
H         7.08357163      -4.97903070      -3.01823923
H         9.87001302      -3.70207197      -3.04148269
H         9.00855278      -4.35706861      -4.44489871
H         9.53727441      -5.44222119      -3.14804101
H         2.89162992       1.79369886      -2.02798659
H         4.35028689       1.12884958      -1.30161338
H         2.11608846       2.61290483       0.20148860
H         3.67035653       3.28538282      -0.27683537
H         3.25344365       0.97737005       1.69506361
H         4.82815833       1.57840647       1.16195163
H         4.30327875       3.82393628       2.11001322
H         2.68624664       3.28896685       2.53114996
H         3.53507782       1.66913670       4.14537188
H         4.09775370       3.29105982       4.51084769
H         5.84657777       1.62504600       4.88488783
H         5.74446788       1.04708217       3.23225234
H         6.54891064       3.26171622       2.38961935
H         6.56235644       3.89345911       4.03848330
H         8.82949529       3.21050177       3.31700351
H         8.29217931       2.19898746       4.66874733
H         8.26402267       1.55861821       3.01361213
