65
lig_010 free ligand  charge=0 uhf=0  ETKDGv3 + MMFF94s  smiles=CC(C)CN(CC(C)C)C(=O)COCC(=O)N(CC(C)C)CC(C)C
C        -2.98664856       3.06110511      -0.89503370
C        -3.32089682       1.59776174      -1.19553396
C        -2.60499070       1.15637207      -2.47236023
C        -2.95001739       0.71935523       0.01663707
N        -3.34355434      -0.68859868      -0.12358080
C        -4.77252063      -1.00994133      -0.01349011
C        -5.29593408      -1.01489989       1.43674100
C        -6.81251701      -1.22096444       1.43785119
C        -4.62618495      -2.09171720       2.29181449
C        -2.44959487      -1.75013257      -0.30147920
O        -2.84164262      -2.91326077      -0.43940598
C        -0.94582619      -1.44517488      -0.35965025
O        -0.43609782      -1.02046987       0.90038854
C         0.78503970      -0.30531356       0.79467366
C         2.02699092      -1.00539043       0.19739283
O         1.98642596      -2.19490268      -0.12307846
N         3.18695675      -0.23884418       0.03453456
C         3.30695277       1.18468017       0.38423338
C         3.38735596       2.12367454      -0.83700704
C         3.64442395       3.55869866      -0.37052380
C         2.12365978       2.07795588      -1.69677597
C         4.38450846      -0.91312760      -0.48807789
C         5.41020852      -1.28403922       0.60147733
C         6.67712488      -1.84283882      -0.05055855
C         4.85282743      -2.29735914       1.60229627
H        -3.52631415       3.40867992      -0.00775366
H        -1.91446796       3.19562463      -0.71489126
H        -3.27277391       3.70566804      -1.73294987
H        -4.39994504       1.53738451      -1.37649564
H        -1.51756376       1.22499759      -2.36306907
H        -2.89572132       1.79131219      -3.31634075
H        -2.86032869       0.12512935      -2.73515291
H        -1.87845973       0.80694340       0.19707761
H        -3.43698331       1.10754229       0.91804579
H        -5.33034012      -0.27908368      -0.60806189
H        -4.97309767      -1.98462308      -0.47381838
H        -5.09365588      -0.04246288       1.90065762
H        -7.20859504      -1.19271746       2.45852730
H        -7.08333458      -2.18592842       0.99587515
H        -7.31239692      -0.43269650       0.86503349
H        -3.55197275      -1.90733010       2.39118097
H        -5.04900741      -2.10277025       3.30225536
H        -4.76482192      -3.08772211       1.85804247
H        -0.76956511      -0.69663262      -1.13874930
H        -0.43846751      -2.36821062      -0.65845607
H         1.05045345      -0.01459026       1.81709472
H         0.58782221       0.61149207       0.23207812
H         4.21034041       1.29571034       0.99431413
H         2.47744875       1.49402849       1.02501639
H         4.23242766       1.82825444      -1.46913697
H         4.57353019       3.61942249       0.20603321
H         2.82788627       3.92397654       0.26169019
H         3.73875059       4.23528621      -1.22655807
H         2.22555018       2.73750209      -2.56552031
H         1.24480785       2.40653002      -1.13243583
H         1.93404408       1.06806175      -2.07343897
H         4.84884108      -0.25188174      -1.22700701
H         4.09458787      -1.81735927      -1.03624697
H         5.69365772      -0.38272976       1.15742234
H         7.43216380      -2.08073198       0.70626119
H         7.11479715      -1.11215793      -0.73897335
H         6.46397662      -2.75672246      -0.61556152
H         5.61581504      -2.57613101       2.33716807
H         4.00493984      -1.88209816       2.15582107
H         4.51992289      -3.21159421       1.09953822
