67
lig_051 free ligand  charge=0 uhf=0  ETKDGv3 + MMFF94s  smiles=CCCCCCCCN(C)C(=O)CC(=O)N(C)CCCCCCCC
C        -8.47589315       2.47965465      -1.15552407
C        -8.16533376       1.03504010      -1.51367856
C        -7.71980913       0.23722468      -0.28745829
C        -7.40335149      -1.21353922      -0.65592843
C        -7.06092256      -2.09001851       0.55281805
C        -5.85761848      -1.63888809       1.38626200
C        -4.55496125      -1.57013941       0.58821865
C        -3.37028270      -1.22129372       1.49206016
N        -2.12298179      -1.13291082       0.73299092
C        -1.34716620      -2.36061861       0.62097532
C        -1.74964640       0.10396638       0.22140889
O        -2.45747142       1.10692348       0.36268338
C        -0.48079976       0.21297222      -0.59099561
C         0.79123539       0.22702747       0.22483148
O         0.80284613      -0.11721830       1.40770933
N         1.96079692       0.61396488      -0.42986181
C         2.06307073       0.93211557      -1.84809606
C         3.19381648       0.71553613       0.35298924
C         3.97530816      -0.59992633       0.34544872
C         5.21132473      -0.57876945       1.24871157
C         6.25526068       0.49746459       0.93071506
C         6.83691798       0.38311199      -0.48017222
C         7.88118470       1.45932819      -0.79717396
C         9.12833167       1.46307063       0.09007091
C         9.90554884       0.15673435       0.05351665
H        -8.79280274       3.03123599      -2.04615639
H        -7.59413336       2.97965477      -0.74218025
H        -9.28135977       2.53608432      -0.41636148
H        -9.05721425       0.57458487      -1.95435731
H        -7.37854283       1.01481040      -2.27677130
H        -6.83532532       0.71591235       0.14770063
H        -8.51001350       0.25986871       0.47261932
H        -6.58534448      -1.24236479      -1.38488778
H        -8.27480310      -1.65424825      -1.15659618
H        -7.93693250      -2.14234121       1.21142066
H        -6.88232447      -3.11285833       0.19814375
H        -5.73350791      -2.34935767       2.21336963
H        -6.06361594      -0.66601845       1.84714242
H        -4.37378192      -2.53179237       0.09338838
H        -4.63610713      -0.81724501      -0.20405013
H        -3.24757318      -1.97382924       2.27994641
H        -3.56088656      -0.26478589       1.99279490
H        -0.45884585      -2.25182723      -0.00003913
H        -1.03406884      -2.66546827       1.62411987
H        -1.97986485      -3.14053194       0.18769814
H        -0.54888272       1.15948733      -1.14184800
H        -0.44333294      -0.58986206      -1.33329809
H         1.18298160       0.62328056      -2.41290232
H         2.19227808       2.01356155      -1.94910891
H         2.93468257       0.42282984      -2.26937667
H         3.78987713       1.53554112      -0.06220273
H         2.94599621       0.98876646       1.38528731
H         3.31915110      -1.41155668       0.68537406
H         4.26183948      -0.86251833      -0.67915949
H         5.69206895      -1.56389046       1.20082317
H         4.88592974      -0.44655030       2.28825818
H         5.82401123       1.49436153       1.07604701
H         7.06000841       0.39910506       1.66828673
H         7.26723886      -0.61405616      -0.62633253
H         6.03192059       0.48350691      -1.21732291
H         7.40552518       2.44588156      -0.73166578
H         8.19322382       1.33800825      -1.84219123
H         9.78857442       2.27030405      -0.24990976
H         8.86094896       1.70161213       1.12511901
H         9.33358894      -0.66242397       0.49915120
H        10.16391444      -0.11851877      -0.97385096
H        10.83610013       0.25748268       0.62135722
