90
lig_091 free ligand  charge=0 uhf=0  ETKDGv3 + MMFF94s  smiles=CCCCCCCCN(CCCCCCCC)C(=O)COCP(=O)(OCCCC)OCCCC
C         4.76995416       6.77362492      -0.30945731
C         3.33155396       6.72213775       0.18182397
C         2.59891529       5.43601020      -0.20598297
C         3.17658597       4.18480646       0.45955287
C         2.34421276       2.94443157       0.12310925
C         2.91989928       1.69300393       0.79025077
C         2.19456112       0.40470138       0.39004667
C         0.74981879       0.34713624       0.89405798
N         0.07538434      -0.91751224       0.57593540
C        -0.04349918      -1.90753185       1.65224742
C         1.25833148      -2.64080739       1.98160826
C         1.79332285      -3.46605092       0.80897273
C         3.06897572      -4.21799842       1.19684463
C         3.60723240      -5.03647646       0.02125721
C         4.82214676      -5.89541214       0.38326896
C         6.06078428      -5.07467497       0.74456263
C         7.26793600      -5.96904899       0.98318810
C        -0.48830785      -1.22626513      -0.66537944
O        -1.00648552      -2.32434312      -0.88677051
C        -0.44873608      -0.14442415      -1.77196878
O        -1.22060950      -0.34140579      -2.94912273
C        -2.63448745      -0.48587787      -2.73471260
P        -3.37524386       0.93807807      -1.93303164
O        -2.99992387       2.28906513      -2.46666043
O        -3.02413676       0.74815987      -0.36573369
C        -3.48503236       1.75133712       0.52434302
C        -3.10544429       1.34435367       1.94189056
C        -3.56201065       2.37689366       2.96782672
C        -3.17231096       1.96759462       4.37916796
O        -4.96548440       0.65183361      -1.95532539
C        -5.67016806       1.00312317      -3.13525721
C        -7.03438679       0.32349889      -3.13427299
C        -6.91595406      -1.20159819      -3.18553132
C        -8.28413119      -1.86425745      -3.21792171
H         4.82176355       6.61721555      -1.39152746
H         5.38890131       6.01642199       0.18048516
H         5.20743047       7.75235541      -0.08748539
H         3.31310091       6.84858957       1.27054678
H         2.78761869       7.57326077      -0.24505669
H         2.61670251       5.31712560      -1.29622231
H         1.54581124       5.54203655       0.08281942
H         3.20240387       4.32494872       1.54692206
H         4.20833159       4.02540680       0.12680328
H         1.31250528       3.10627138       0.45433508
H         2.31906869       2.80346452      -0.96419774
H         3.97556509       1.59127419       0.50921257
H         2.89352545       1.80743448       1.88071665
H         2.23080945       0.29191852      -0.69790012
H         2.75975001      -0.44077490       0.79596872
H         0.16466012       1.16584037       0.47025658
H         0.72912359       0.48816847       1.98119941
H        -0.81483750      -2.64588943       1.40599289
H        -0.40543124      -1.38233558       2.54444976
H         2.01915699      -1.92705592       2.31527019
H         1.06865150      -3.30864933       2.83125771
H         1.02811528      -4.18218313       0.48598640
H         2.00728083      -2.81267495      -0.04456423
H         3.82270565      -3.49490471       1.52780894
H         2.86047243      -4.88298783       2.04351035
H         2.81505623      -5.70224885      -0.34337061
H         3.86412362      -4.36774369      -0.80931588
H         5.05568131      -6.53566137      -0.47660570
H         4.56544178      -6.56453809       1.21358621
H         6.28999015      -4.36994327      -0.06300194
H         5.87764943      -4.48622773       1.64979882
H         8.14205699      -5.36407641       1.24373445
H         7.51113622      -6.54805612       0.08656157
H         7.08144262      -6.66841727       1.80444417
H         0.59010417      -0.09284813      -2.11161397
H        -0.69277499       0.83768965      -1.36503709
H        -2.85369914      -1.40758165      -2.19000626
H        -3.07846714      -0.59417700      -3.72870978
H        -3.01713202       2.70582653       0.26189847
H        -4.57135917       1.85133295       0.43114041
H        -2.01903896       1.20705912       2.00188119
H        -3.54315727       0.36385827       2.16780329
H        -3.11496364       3.35148412       2.73983131
H        -4.65016122       2.49841134       2.91545326
H        -2.08611632       1.86829142       4.47291766
H        -3.62964316       1.01074130       4.65052998
H        -3.50800863       2.72086914       5.09872226
H        -5.09671860       0.70965762      -4.02072183
H        -5.79743274       2.09037843      -3.15056279
H        -7.61290940       0.67874760      -3.99480665
H        -7.58007994       0.60674611      -2.22597848
H        -6.36309750      -1.56812772      -2.31301287
H        -6.35070386      -1.50024481      -4.07606718
H        -8.86403811      -1.61048598      -2.32482188
H        -8.85249341      -1.54823727      -4.09849564
H        -8.17713538      -2.95286054      -3.25558892
