108
lig_009 free ligand  charge=0 uhf=0  ETKDGv3 + MMFF94s  smiles=CC(C)CCN(CCC(C)C)C(=O)COCC(=O)NCc1cccc(CNC(=O)COCC(=O)N(CCC(C)C)CCC(C)C)c1
C        -4.71714180       3.19158919      -1.39943533
C        -4.58590060       1.84343378      -0.68586910
C        -5.70560189       0.91152729      -1.15805190
C        -4.64149768       1.99465115       0.84576319
C        -3.38638639       2.60186002       1.48491355
N        -2.22893715       1.69139868       1.57071312
C        -2.28352544       0.68688176       2.64240794
C        -1.58873173      -0.67158923       2.44146693
C        -2.10041594      -1.62146426       1.34412855
C        -3.58970433      -1.92978615       1.46380161
C        -1.74664504      -1.15941492      -0.06510726
C        -0.98252594       2.01786399       1.01268259
O         0.06742957       1.48760983       1.38122426
C        -0.97324690       3.07097693      -0.11030718
O         0.21100642       3.02957326      -0.90095696
C         0.19034759       3.98123283      -1.95894598
C        -0.66187546       3.56977387      -3.16471066
O        -1.14674382       4.38603505      -3.94171987
N        -0.79889232       2.20957792      -3.30453885
C        -1.49863077       1.62274202      -4.41915823
C        -1.71093032       0.14687867      -4.21416559
C        -2.99504007      -0.36270464      -3.98628962
C        -3.18832844      -1.72900741      -3.78389539
C        -2.09926473      -2.60009783      -3.80180530
C        -0.80515181      -2.11473629      -4.02974117
C         0.37623026      -3.04689609      -3.99125052
N         0.85295319      -3.20387623      -2.64284873
C         1.89425102      -4.03909397      -2.31720233
O         2.49199676      -4.72883398      -3.13745056
C         2.21851046      -4.05832927      -0.82014889
O         1.52765160      -3.00752801      -0.13969073
C         1.56918393      -3.16064196       1.26840175
C         2.92864682      -2.99966803       1.96509644
O         3.42991819      -3.96892879       2.54228387
N         3.53123794      -1.74512950       1.95623272
C         4.75235970      -1.56324072       2.74473176
C         4.48312743      -1.42300257       4.24991432
C         3.69812236      -0.16304434       4.66247713
C         4.48303365       1.12217471       4.39321066
C         3.34086240      -0.24046041       6.14982108
C         3.07969217      -0.61233372       1.13262168
C         3.92362906      -0.49446454      -0.14393562
C         3.51420564       0.62983941      -1.11022154
C         3.52405406       2.00616080      -0.44722697
C         2.16585189       0.35511863      -1.77060574
C        -0.62139429      -0.73882758      -4.23173844
H        -4.65814524       3.05909276      -2.48535649
H        -3.92202610       3.88418524      -1.11146634
H        -5.67624030       3.66905272      -1.17107265
H        -3.63322590       1.39141647      -0.97678618
H        -6.69053788       1.29718987      -0.87340331
H        -5.68841763       0.79946288      -2.24699032
H        -5.59214500      -0.08578372      -0.72055918
H        -5.49605095       2.63529760       1.10132959
H        -4.85067678       1.02531155       1.30654000
H        -3.62439902       2.88914790       2.51766900
H        -3.12299303       3.53682708       0.98791341
H        -3.33286501       0.50273675       2.89649720
H        -1.83484253       1.16644650       3.52225746
H        -1.69029252      -1.20788681       3.39606063
H        -0.50974984      -0.54013988       2.31857189
H        -1.57363658      -2.57336684       1.49748293
H        -3.84095201      -2.25869169       2.47741515
H        -4.20468696      -1.06157458       1.22285174
H        -3.87158931      -2.73275125       0.77390852
H        -0.67883854      -0.93598497      -0.15013366
H        -1.97635814      -1.94781531      -0.78861493
H        -2.30873850      -0.27200092      -0.35722404
H        -1.83187988       2.89441681      -0.75969695
H        -1.05184647       4.05763179       0.35925436
H         1.21835417       4.08989150      -2.32022045
H        -0.14479075       4.95791140      -1.59238978
H        -0.36326394       1.61313601      -2.60777081
H        -0.90843105       1.79564874      -5.32667032
H        -2.45224142       2.14719661      -4.55142783
H        -3.85497628       0.30297735      -3.96565263
H        -4.18871009      -2.11546321      -3.60580011
H        -2.26240123      -3.66185641      -3.62773247
H         1.19745027      -2.66559254      -4.60937988
H         0.10871528      -4.03237147      -4.39031176
H         0.46016263      -2.64689437      -1.88859698
H         3.29818326      -3.92752711      -0.69887672
H         1.90832225      -5.03472354      -0.43201901
H         1.15279064      -4.13854475       1.54114483
H         0.89142456      -2.42189952       1.70612010
H         5.38800908      -2.44376965       2.58945353
H         5.31629764      -0.70526268       2.36695823
H         5.44844568      -1.43102690       4.77257485
H         3.93862115      -2.30940224       4.59863752
H         2.75705814      -0.12215678       4.10153201
H         5.44370660       1.11729190       4.91938042
H         3.91860999       1.99782485       4.73183873
H         4.68277088       1.25845485       3.32685853
H         2.75733818       0.63432018       6.45606535
H         4.24019828      -0.28382776       6.77365665
H         2.73888023      -1.13100953       6.35952672
H         2.02504169      -0.72468468       0.87948031
H         3.16253868       0.29402414       1.73870707
H         4.97368698      -0.33689335       0.13328245
H         3.90450769      -1.45010702      -0.68239180
H         4.26591054       0.64812455      -1.91074631
H         2.73580334       2.10178032       0.30574147
H         3.36565987       2.79229211      -1.19326530
H         4.48647994       2.19725596       0.03876316
H         1.95733302       1.10888539      -2.53666744
H         1.34443048       0.37216327      -1.04899130
H         2.16879492      -0.62212585      -2.26221940
H         0.38263359      -0.35115891      -4.39991417
