137
lig_063 free ligand  charge=0 uhf=0  ETKDGv3 + MMFF94s  smiles=CCCCCCCCN(CCCCC(C)CCCC(C)C)C(=O)COCC(=O)N(CCCCCCCC)CCCCC(C)CCCC(C)C
C         6.46645698       4.97642622       6.32244194
C         5.94792194       3.78057908       5.53983462
C         4.91369786       4.20042832       4.49556313
C         4.39520088       2.99356212       3.71010894
C         3.35719312       3.41390966       2.66975625
C         2.87917433       2.27221079       1.76504964
C         2.11014362       1.16368021       2.49341579
C         2.99715772       0.00117766       2.95558937
N         2.87743382      -1.19079693       2.10483874
C         3.66155869      -1.23775474       0.86813606
C         2.84795146      -0.82297176      -0.36233609
C         3.54241475      -1.15659956      -1.68625521
C         4.92536857      -0.52635561      -1.89610622
C         4.96569236       1.01391797      -1.85606259
C         4.10686490       1.64221345      -2.95597069
C         6.41487127       1.54841508      -1.89147248
C         7.19792854       1.24512969      -3.17438838
C         8.61367961       1.83014184      -3.10363065
C         9.41116120       1.66759054      -4.41110782
C        10.74707058       2.40647510      -4.29870525
C         9.66156862       0.20103820      -4.76531772
C         2.02115552      -2.25965434       2.37024966
O         1.92080355      -3.22318799       1.60437904
C         1.15953312      -2.21021911       3.64307522
O         0.21108786      -1.15098533       3.68409195
C        -0.81619381      -1.30025494       2.70629188
C        -1.79216820      -2.47446378       2.92234155
O        -2.01434372      -2.88799457       4.06470063
N        -2.39178094      -3.05685756       1.80481309
C        -3.15298429      -4.29449263       2.02082052
C        -4.65276708      -4.04358357       2.16665468
C        -5.44105718      -5.29401437       2.56657852
C        -5.36065518      -6.46624687       1.58326246
C        -5.78741714      -6.15571289       0.14473014
C        -7.20135220      -5.59073391      -0.02119388
C        -8.29522779      -6.53745928       0.47351354
C        -9.68134029      -5.97916894       0.18931551
C        -2.20654210      -2.61977663       0.41555695
C        -2.74717242      -1.22599177       0.06618727
C        -4.25403434      -1.07834887       0.27333860
C        -4.78577862       0.32109135      -0.06339289
C        -4.57125145       0.80717145      -1.51422200
C        -5.21107016      -0.14407878      -2.52939720
C        -5.13204952       2.24202388      -1.64741035
C        -4.81169452       2.90387060      -2.99189928
C        -5.14493931       4.40118189      -3.02578963
C        -6.61846097       4.76620466      -2.76409575
C        -7.56861718       4.11736064      -3.77112426
C        -6.78724184       6.28783127      -2.80012995
H         5.65235351       5.48178069       6.85176864
H         6.94707390       5.70161600       5.65803135
H         7.20443939       4.65341237       7.06335560
H         6.79029537       3.27923073       5.04915490
H         5.50289160       3.06059186       6.23645661
H         5.36300175       4.92391399       3.80437112
H         4.07473113       4.70441512       4.99076247
H         5.23454582       2.49403395       3.21177045
H         3.95272442       2.27652678       4.41046683
H         2.49370234       3.86576311       3.17340708
H         3.78806014       4.19431146       2.02986249
H         2.20697159       2.71309943       1.01784560
H         3.72845338       1.85923287       1.21199280
H         1.59629849       1.59422904       3.36161570
H         1.32297227       0.78738366       1.82903480
H         2.71956585      -0.25774180       3.98008255
H         4.05581004       0.27700787       2.99831110
H         4.02089673      -2.26555102       0.73509766
H         4.54717174      -0.60432999       0.98555973
H         1.87873063      -1.33726572      -0.35512338
H         2.61269970       0.24479340      -0.31894899
H         3.65220547      -2.24652845      -1.75665646
H         2.87998173      -0.87144635      -2.51190173
H         5.29778860      -0.87641156      -2.86670880
H         5.61727526      -0.92629475      -1.14491578
H         4.55313156       1.34300874      -0.89612023
H         4.36517007       1.25002154      -3.94472779
H         3.04408910       1.44342602      -2.78507869
H         4.23289621       2.72996120      -2.97566107
H         6.96166945       1.13621062      -1.03337781
H         6.38718622       2.63559181      -1.74066699
H         6.67841593       1.66791466      -4.04101567
H         7.25733027       0.16248527      -3.31937307
H         8.54044034       2.89943776      -2.86648861
H         9.15993858       1.36149088      -2.27501990
H         8.84208315       2.12612448      -5.22972864
H        11.36565333       1.98980651      -3.49644879
H        10.58786963       3.46921561      -4.08747529
H        11.31178428       2.33485852      -5.23435980
H        10.29025754       0.11939195      -5.65869247
H         8.72550070      -0.32262983      -4.98112364
H        10.16694222      -0.32420927      -3.94787278
H         1.82285226      -2.11238274       4.50854721
H         0.65769967      -3.17724985       3.76323531
H        -0.35571438      -1.33016280       1.71743821
H        -1.42057828      -0.38824868       2.75734104
H        -2.94279405      -4.97522773       1.18855366
H        -2.78273482      -4.79598394       2.92279963
H        -4.81828288      -3.27488812       2.93195589
H        -5.05576134      -3.63774388       1.23430237
H        -5.08444575      -5.63999345       3.54500038
H        -6.49081652      -5.01313248       2.71244023
H        -4.33406295      -6.85172634       1.56326580
H        -5.97231787      -7.28843090       1.97379189
H        -5.70424093      -7.07784590      -0.44440901
H        -5.07579926      -5.45088486      -0.30157285
H        -7.28537760      -4.62557063       0.49107155
H        -7.36097352      -5.38676750      -1.08761051
H        -8.19339216      -7.51289955      -0.01585504
H        -8.19867588      -6.70128314       1.55205222
H        -9.82577746      -5.01577857       0.68871424
H        -9.83452302      -5.83626722      -0.88513103
H       -10.44946289      -6.66897517       0.55276612
H        -1.13282874      -2.65709623       0.19982299
H        -2.67970907      -3.35108572      -0.25081403
H        -2.23151760      -0.44896615       0.63594302
H        -2.50427622      -1.04372920      -0.98698510
H        -4.49085371      -1.26838321       1.32639466
H        -4.78928859      -1.83464783      -0.31040963
H        -5.85971063       0.33793360       0.16472624
H        -4.31691514       1.03810929       0.62337409
H        -3.49408290       0.85097854      -1.71470295
H        -6.29190601      -0.22170671      -2.37125085
H        -4.78361853      -1.14877308      -2.45968998
H        -5.04133430       0.19277879      -3.55619579
H        -6.21757995       2.22037082      -1.49337134
H        -4.71005839       2.86178310      -0.84583973
H        -5.33906835       2.39516727      -3.80506914
H        -3.74020241       2.79253611      -3.20000159
H        -4.84423367       4.79362739      -4.00609160
H        -4.51521002       4.91298371      -2.28632155
H        -6.89987348       4.43051802      -1.75898164
H        -7.56217794       3.02700124      -3.67975763
H        -7.29425585       4.37607646      -4.79937477
H        -8.59870503       4.44986010      -3.60284745
H        -6.53333967       6.69341998      -3.78547128
H        -7.82095211       6.57019977      -2.57379630
H        -6.14107211       6.76868129      -2.05807452
