126
lig_100 free ligand  charge=0 uhf=0  ETKDGv3 + MMFF94s  smiles=CCCCCCCCN(CCCCCCCC)C(=S)c1ccc2ccc3ccc(C(=S)N(CCCCCCCC)CCCCCCCC)nc3c2n1
C         1.00005043      -5.97354292       4.05832842
C        -0.32537761      -5.28149819       4.33562020
C        -0.46699215      -3.99752075       3.51760795
C        -1.80927646      -3.31101963       3.78428882
C        -1.93709931      -1.94059073       3.11007268
C        -1.94119607      -2.01554005       1.58181819
C        -2.00924758      -0.64031439       0.91537270
C        -3.37788768       0.04026322       1.04154206
N        -3.37885853       1.33000090       0.32554738
C        -3.74424071       1.26299227      -1.10283438
C        -5.26203104       1.18784208      -1.31986370
C        -5.98237760       2.46621687      -0.87984671
C        -7.49798027       2.41654135      -1.09703103
C        -7.95722864       2.25880228      -2.55008171
C        -7.43508068       3.31547097      -3.52897704
C        -7.76026288       4.76720881      -3.16947332
C        -9.25185019       5.05558254      -3.10214407
C        -2.92226449       2.52216535       0.94029431
S        -2.88445224       2.77553138       2.61601930
C        -2.38953241       3.59811046       0.04155945
C        -2.90046360       4.88308477       0.04437314
C        -2.30395932       5.81293180      -0.80029610
C        -1.22075508       5.43752799      -1.61225462
C        -0.59399981       6.36636513      -2.45056788
C         0.48990176       5.98063248      -3.23161494
C         0.95008282       4.65936940      -3.19106908
C         2.05416855       4.25595401      -3.95888145
C         2.50191657       2.94053815      -3.90206490
C         1.81435644       2.06292998      -3.08250271
C         2.19724081       0.61420396      -2.97935573
S         2.15507032      -0.32229301      -4.39435180
N         2.54770494       0.10947734      -1.70113188
C         2.69375656      -1.33437880      -1.43247109
C         1.35695152      -1.95235293      -1.01680553
C         1.40825777      -3.46768864      -0.79659246
C         2.22406883      -3.90021901       0.42780349
C         3.66800695      -4.31852855       0.12885182
C         3.76521019      -5.67089510      -0.58454848
C         5.20243733      -6.06264684      -0.93882239
C         6.08872632      -6.29502278       0.27516176
C         2.77256251       0.97763393      -0.52864466
C         4.25516108       1.33590220      -0.39524648
C         4.55301071       2.26616698       0.78329595
C         4.14804167       1.74020012       2.16467971
C         4.68999705       0.35578748       2.53558389
C         6.21879087       0.28339186       2.53699246
C         6.75845605      -1.04412140       3.07572311
C         6.37757611      -2.24422545       2.22238889
N         0.74072748       2.42400541      -2.34287207
C         0.31110157       3.70511002      -2.36692509
C        -0.76561570       4.09973561      -1.56359113
N        -1.35584860       3.20734596      -0.74048034
H         1.08577069      -6.88342122       4.66050779
H         1.84330190      -5.32089834       4.30601549
H         1.08216815      -6.25574440       3.00387571
H        -0.39364299      -5.05125246       5.40516906
H        -1.14649908      -5.96762473       4.09765588
H         0.35358006      -3.31317845       3.76471213
H        -0.37684123      -4.24344932       2.45400280
H        -1.93125735      -3.17049099       4.86552672
H        -2.62917187      -3.96109279       3.45553650
H        -2.86920560      -1.48022611       3.45667497
H        -1.11926670      -1.29219222       3.44730079
H        -1.02018629      -2.49859253       1.23909757
H        -2.77416435      -2.63992758       1.23785768
H        -1.22380117       0.00822375       1.32257121
H        -1.77141028      -0.76856666      -0.14802842
H        -4.15889148      -0.60074604       0.61889637
H        -3.63422086       0.18975479       2.09215481
H        -3.37349941       2.12372329      -1.66131161
H        -3.26496091       0.37824627      -1.53630103
H        -5.68448595       0.32867396      -0.78726211
H        -5.43494424       1.01659161      -2.38817356
H        -5.80780924       2.63085453       0.18997477
H        -5.55596837       3.33182468      -1.39876970
H        -7.93920605       3.32767340      -0.67570121
H        -7.91225474       1.58516132      -0.51271679
H        -9.05384162       2.25896134      -2.56785862
H        -7.66132209       1.26929493      -2.91861638
H        -6.34787049       3.21451929      -3.62860542
H        -7.84816125       3.09667341      -4.52190012
H        -7.31474156       5.41802385      -3.93165172
H        -7.29163029       5.04110918      -2.21812647
H        -9.42047195       6.12468221      -2.93755277
H        -9.74899293       4.77438139      -4.03585510
H        -9.72838566       4.51483820      -2.27927885
H        -3.73140382       5.15988964       0.68313936
H        -2.68109946       6.83319114      -0.81313541
H        -0.93787256       7.39797209      -2.49335213
H         0.97317780       6.71854000      -3.86901876
H         2.57253242       4.96315730      -4.60263434
H         3.35606573       2.61666947      -4.48599842
H         3.43551055      -1.45421305      -0.63656708
H         3.09202973      -1.85144610      -2.30937805
H         0.60695400      -1.74643612      -1.79068198
H         0.98824368      -1.46287595      -0.10713582
H         0.37409916      -3.80037216      -0.63814849
H         1.75130866      -3.96407250      -1.70972038
H         2.23062090      -3.09485219       1.17245223
H         1.71575681      -4.74866740       0.90295170
H         4.19426494      -4.38594635       1.08769018
H         4.17995351      -3.55202193      -0.46008432
H         3.31745181      -6.45131894       0.04278694
H         3.18680064      -5.64465233      -1.51434842
H         5.17383964      -6.98575849      -1.53009119
H         5.65213681      -5.29244034      -1.57624146
H         5.64394772      -7.03135420       0.95186743
H         7.06645231      -6.67265438      -0.04108677
H         6.25773537      -5.36898883       0.83225146
H         2.41180639       0.44600634       0.35822613
H         2.19534375       1.89900375      -0.58649027
H         4.58899216       1.83066144      -1.31632823
H         4.85864620       0.42481597      -0.31376802
H         4.04269780       3.22339740       0.61707468
H         5.62560382       2.49460181       0.78363232
H         4.47943228       2.46510593       2.91897033
H         3.05388612       1.71543129       2.23537509
H         4.31849285       0.10264867       3.53644539
H         4.27494092      -0.39422211       1.85418894
H         6.60679393       0.44089702       1.52433413
H         6.61655534       1.09444743       3.15919355
H         6.40664854      -1.20084060       4.10204176
H         7.85219230      -0.98108400       3.12197260
H         6.87629429      -3.14459820       2.59525726
H         5.29987391      -2.42784488       2.25200458
H         6.67612368      -2.09820711       1.17952349
