38
lig_103 free ligand  charge=0 uhf=0  ETKDGv3 + MMFF94s  smiles=CCCCCCCCNC(=O)c1cnccn1
C        -5.05037134       0.98584845      -1.60011868
C        -4.97711817      -0.14199588      -0.58237278
C        -3.55631723      -0.42595773      -0.08723180
C        -2.94743219       0.73743841       0.69583328
C        -1.62861792       0.39599886       1.40003670
C        -0.47203562       0.05133239       0.45432014
C        -0.27074089      -1.45875681       0.28379857
C         0.81550996      -1.80178389      -0.73552062
N         2.13417351      -1.42121321      -0.28333700
C         2.80302694      -0.30616319      -0.74200652
O         2.35742780       0.47568539      -1.57317509
C         4.14901343      -0.10449349      -0.13582342
C         4.92386420       0.98299323      -0.50969994
N         6.15578285       1.20765660       0.01690419
C         6.56991772       0.29745387       0.92886806
C         5.79417364      -0.79036234       1.30275804
N         4.56566082      -1.02468574       0.78511575
H        -4.77569317       1.94643288      -1.15459257
H        -4.38542338       0.79396779      -2.44810325
H        -6.07121699       1.07895348      -1.98445684
H        -5.62926784       0.09071292       0.26745741
H        -5.37258980      -1.05460068      -1.04415304
H        -3.58939997      -1.31481354       0.55433277
H        -2.92298130      -0.67036658      -0.94741421
H        -2.78243956       1.59151926       0.02864020
H        -3.66217999       1.06894248       1.45939115
H        -1.33716320       1.28339500       1.97693141
H        -1.78739276      -0.40556569       2.13109963
H        -0.61501784       0.53320109      -0.51987262
H         0.44603544       0.47337821       0.88140069
H        -1.20392937      -1.92709681      -0.04361291
H        -0.01671363      -1.90222361       1.25474109
H         0.59962310      -1.33363776      -1.70185636
H         0.84083150      -2.88613009      -0.88704796
H         2.61934576      -1.98755897       0.40834322
H         4.58009840       1.70604018      -1.24187708
H         7.55229435       0.46692673       1.35611325
H         6.14726275      -1.50714760       2.03618711
