118
lig_025 free ligand  charge=0 uhf=0  ETKDGv3 + MMFF94s  smiles=CCCCCC(C)Oc1cc(CNC(=O)COCC(=O)N(CCCC)CCCC)cc(CNC(=O)COCC(=O)N(CCCC)CCCC)c1
C         5.14053300       5.00382897      -0.95327291
C         4.11618752       5.75003797      -0.11232594
C         3.90939481       5.15099931       1.28242177
C         3.43558328       3.69360883       1.31619341
C         2.03070096       3.45977763       0.73955222
C         0.91346999       3.29178556       1.78757872
C         0.75540058       4.52848211       2.66976064
O         1.20775409       2.19329428       2.66268817
C         0.67162386       0.96716841       2.38351503
C         0.14491883       0.56194079       1.15796226
C        -0.35496884      -0.73970649       0.98538855
C        -0.92778818      -1.16045114      -0.34288266
N        -2.24093131      -0.59943581      -0.53786141
C        -2.47287066       0.52568113      -1.29582476
O        -1.59348507       1.14385898      -1.88824521
C        -3.94039692       0.96387343      -1.29450134
O        -4.83867391      -0.14113815      -1.19725843
C        -5.13474527      -0.72252790      -2.46341848
C        -6.13742726       0.04970699      -3.34547787
O        -6.53446501       1.16757248      -3.00655192
N        -6.57552340      -0.56458116      -4.52410011
C        -7.51916490       0.18183949      -5.36476875
C        -9.00714910      -0.10166656      -5.10902838
C        -9.59417926       0.52783800      -3.84215296
C        -9.55768267      -0.39218895      -2.63188709
C        -5.97400011      -1.78270806      -5.09241906
C        -6.95702554      -2.91059370      -5.41832512
C        -7.59843523      -3.56110677      -4.19110758
C        -6.64406555      -4.47026996      -3.43102706
C        -0.32996232      -1.62926975       2.06635230
C         0.19953396      -1.24020118       3.30422038
C         0.26241145      -2.22304552       4.44574360
N         1.46539191      -3.01347508       4.36776113
C         1.52508366      -4.21087784       3.68965766
O         0.55346497      -4.73632476       3.15244898
C         2.94193025      -4.80589873       3.60927791
O         3.72292716      -4.54972014       2.45240349
C         3.67033256      -3.22310312       1.94916095
C         4.07799489      -2.03810722       2.85965349
O         4.14299450      -2.18488779       4.08570176
N         4.33217414      -0.80273299       2.25773330
C         4.68916543       0.32006577       3.13500633
C         6.05911274       0.20556562       3.81996716
C         7.26604770       0.49592104       2.92709344
C         7.37638892       1.95666192       2.51473158
C         3.94594409      -0.47795420       0.87747643
C         5.11666630      -0.14351897      -0.04675835
C         5.99635983      -1.35339866      -0.36018468
C         7.16571173      -0.97118149      -1.25411691
C         0.71123176       0.05735120       3.44392230
H         6.08930570       4.89912135      -0.41765084
H         4.78387494       4.00672943      -1.22777876
H         5.33409957       5.55120517      -1.88145368
H         3.16746680       5.80125750      -0.65627039
H         4.45653965       6.78576551       0.00894367
H         3.20141421       5.78208127       1.83069178
H         4.85936229       5.21197941       1.82877047
H         3.48529736       3.33922568       2.35185190
H         4.15090824       3.07574801       0.76116262
H         2.08216776       2.53683419       0.14958123
H         1.74973284       4.25309686       0.04005734
H        -0.04903825       3.15273538       1.28022284
H        -0.10329884       4.40248456       3.33893477
H         1.62529631       4.67789395       3.31747654
H         0.59466330       5.42899624       2.06954162
H         0.11876464       1.23293510       0.30405146
H        -0.25459013      -0.85810823      -1.15313441
H        -1.02903577      -2.25001398      -0.39473010
H        -3.03520947      -1.01380035      -0.06115755
H        -4.13656403       1.57547855      -2.18076383
H        -4.08869999       1.58791602      -0.40707959
H        -5.57979837      -1.69812643      -2.24746128
H        -4.20546637      -0.88121225      -3.02122169
H        -7.33250150       1.25712550      -5.25750417
H        -7.28960882      -0.05557095      -6.41092335
H        -9.55112284       0.33203609      -5.95892100
H        -9.22101038      -1.17393402      -5.12977690
H       -10.64794466       0.76489328      -4.03672119
H        -9.10383785       1.47970941      -3.61321134
H       -10.11160215      -1.31593647      -2.82832637
H        -8.53910135      -0.66109237      -2.34787328
H       -10.02428004       0.10054030      -1.77277997
H        -5.47494852      -1.47115887      -6.01878662
H        -5.18048499      -2.16936890      -4.45176649
H        -7.74455698      -2.53822436      -6.08137924
H        -6.42584865      -3.68065262      -5.99200160
H        -8.45119169      -4.16480534      -4.52417643
H        -7.99611266      -2.79988355      -3.51369478
H        -6.26745175      -5.26928788      -4.07770314
H        -7.16214769      -4.93666238      -2.58695669
H        -5.78727398      -3.91995856      -3.03450276
H        -0.71399128      -2.64263682       1.94710106
H         0.27240432      -1.69634504       5.40617965
H        -0.61988876      -2.87315787       4.43861318
H         2.33554371      -2.60288343       4.70675034
H         3.51486446      -4.51807679       4.49752952
H         2.82899150      -5.89396639       3.68326199
H         4.34306886      -3.21914911       1.08714811
H         2.66033247      -3.03386277       1.56917524
H         4.61985822       1.25538489       2.57493133
H         3.91900025       0.36749936       3.91518562
H         6.18851249      -0.79225235       4.25220872
H         6.07860884       0.90810505       4.66292131
H         8.17454083       0.23259243       3.48273701
H         7.25131437      -0.14440214       2.04187744
H         7.42861391       2.60751618       3.39340177
H         6.52802669       2.27589502       1.90420193
H         8.28640944       2.11185627       1.92629731
H         3.35261876      -1.28103458       0.43438285
H         3.27661277       0.38757236       0.92963207
H         4.70868434       0.24647519      -0.98788843
H         5.72098433       0.66032584       0.38238237
H         6.38459546      -1.79540797       0.56350392
H         5.39982306      -2.12339942      -0.86278474
H         7.77890329      -1.85098682      -1.47273007
H         6.81436959      -0.55705027      -2.20455553
H         7.80287982      -0.22521702      -0.76826121
H         1.14465804       0.37182713       4.39119075
