113
lig_111 free ligand  charge=0 uhf=0  ETKDGv3 + MMFF94s  smiles=CCCCCCN(CCC(C)CCCC(C)C)C(=O)COCC(=O)N(CCCCCC)CCC(C)CCCC(C)C
C        -0.06069412      -4.92613250      -1.73670771
C        -1.08431848      -4.59272175      -2.80982231
C        -2.53239760      -4.80504924      -2.36235046
C        -2.97773572      -3.99563841      -1.14066410
C        -2.85241732      -2.48410418      -1.33402338
C        -3.44024840      -1.72267242      -0.14300852
N        -3.25545304      -0.27660941      -0.28746947
C        -4.23322107       0.45271746      -1.10025736
C        -5.20870751       1.30028825      -0.26997051
C        -6.17978579       0.49928688       0.62087894
C        -7.17653714      -0.31523816      -0.20872900
C        -6.90709476       1.41299888       1.63361190
C        -7.80147957       2.49710421       1.01843456
C        -8.47522192       3.33415024       2.11324821
C        -9.39933421       4.45921950       1.60879960
C        -8.64577994       5.51288569       0.79712288
C       -10.59017385       3.92341191       0.81404302
C        -2.16696754       0.43700375       0.22254074
O        -2.02527360       1.64163471       0.00472910
C        -1.14246558      -0.34672187       1.07236220
O         0.00180547       0.34939257       1.54267411
C         0.93145951       0.64690337       0.50889207
C         2.23734330       1.27085959       1.03013379
O         2.52809045       2.42681959       0.70651696
N         3.09178932       0.48868506       1.81542481
C         2.77283583      -0.86933592       2.27181304
C         3.15166091      -1.96086954       1.26894070
C         2.58846141      -3.31958257       1.69400259
C         3.00389045      -4.42118683       0.71679322
C         2.37866096      -5.78040095       1.03701952
C         2.86792124      -6.37918679       2.34656841
C         4.29498718       1.12245960       2.36313644
C         5.63263149       0.58580573       1.83751984
C         6.09062384       1.01330764       0.42201622
C         5.26187676       0.37242841      -0.68994522
C         6.17595158       2.54694443       0.28029562
C         6.78353412       3.07170338      -1.02915318
C         8.23949236       2.64734279      -1.24572490
C         8.85001970       3.19533135      -2.55057818
C        10.23411694       2.57947370      -2.77292940
C         8.96154572       4.72075326      -2.55166780
H        -0.20311825      -5.94355542      -1.35921641
H         0.95091560      -4.85687118      -2.14923101
H        -0.12243820      -4.23131183      -0.89383330
H        -0.89683838      -5.23217132      -3.68101457
H        -0.93676624      -3.56141272      -3.14855474
H        -3.19331583      -4.56746506      -3.20530019
H        -2.68350575      -5.86977525      -2.14452667
H        -2.40696430      -4.30523885      -0.25746127
H        -4.02585318      -4.24540976      -0.93271466
H        -1.80004201      -2.20635646      -1.45966664
H        -3.36775419      -2.18546767      -2.25478359
H        -4.51060710      -1.93169520      -0.04808874
H        -2.97272744      -2.06650568       0.78362881
H        -3.67904713       1.12451261      -1.76767282
H        -4.76918183      -0.24878118      -1.74756529
H        -4.63608325       1.99139414       0.36044767
H        -5.78427840       1.92084790      -0.96784263
H        -5.59528706      -0.20746112       1.22294892
H        -6.67105008      -1.10185407      -0.77653255
H        -7.71648853       0.31294087      -0.92429066
H        -7.91220250      -0.80492190       0.43817363
H        -7.51473061       0.78401712       2.29730977
H        -6.15484304       1.89257581       2.27346936
H        -7.19984801       3.14868586       0.37785549
H        -8.56636376       2.02944632       0.39143332
H        -7.69913486       3.77912383       2.74949333
H        -9.05868474       2.66814847       2.76218883
H        -9.80123848       4.96039079       2.49952793
H        -8.29138439       5.11470541      -0.15888371
H        -9.29767791       6.36547306       0.57761733
H        -7.78132586       5.88946796       1.35371328
H       -11.29829719       4.72999464       0.59485873
H       -10.28032992       3.48859701      -0.14148225
H       -11.12537446       3.15603349       1.38288134
H        -1.67511423      -0.68507948       1.96798924
H        -0.81536670      -1.23775624       0.52589176
H         1.17818424      -0.25547201      -0.05810944
H         0.48751682       1.36453175      -0.18936135
H         1.70655539      -0.92959163       2.49653582
H         3.28820831      -1.05024388       3.22284102
H         4.24088722      -2.03417869       1.19404958
H         2.78794877      -1.71156928       0.26699485
H         1.49407070      -3.26365030       1.74054885
H         2.94680745      -3.55691524       2.70191890
H         4.09681772      -4.51272164       0.70393360
H         2.70032906      -4.13315776      -0.29701262
H         1.28637341      -5.69320441       1.06262823
H         2.62232656      -6.47480022       0.22408457
H         2.54723471      -5.78250704       3.20541227
H         2.46041035      -7.38733549       2.47353649
H         3.95998443      -6.45104687       2.36238873
H         4.25944368       0.96196486       3.44857241
H         4.25255839       2.20851436       2.24029841
H         5.65600780      -0.50634951       1.90993614
H         6.40562176       0.93560034       2.53633208
H         7.10659796       0.61019378       0.32204345
H         5.75132888       0.49681196      -1.66143981
H         4.26603823       0.81320843      -0.76715590
H         5.15585724      -0.70391986      -0.52881756
H         6.75776482       2.95128048       1.11852944
H         5.17240972       2.97867930       0.36336856
H         6.72315017       4.16541294      -0.99509060
H         6.17207422       2.75685358      -1.88207535
H         8.29341055       1.55325579      -1.27905029
H         8.84510044       2.96873955      -0.38899669
H         8.21098235       2.89636621      -3.39111828
H        10.92201150       2.84477105      -1.96280894
H        10.17149715       1.48715141      -2.82107189
H        10.66915194       2.92861703      -3.71544535
H         9.46950518       5.07207116      -3.45647491
H         7.97545462       5.19391919      -2.53279717
H         9.52933509       5.07799435      -1.68593853
