101
lig_031 free ligand  charge=0 uhf=0  ETKDGv3 + MMFF94s  smiles=CCCCCCCCCCCCN(CC)C(=O)COCC(=O)N(CC)CCCCCCCCCCCC
C        -8.90687748       5.10468123      -3.05519885
C        -9.53052859       3.86350446      -2.43627849
C        -9.28893330       3.74493283      -0.92958987
C        -7.82081632       3.66305501      -0.49865986
C        -7.01457424       2.51345717      -1.11130943
C        -7.56735373       1.10836386      -0.85264153
C        -7.72551889       0.72031796       0.62110101
C        -6.45422648       0.80647503       1.47119800
C        -5.32896929      -0.10614255       0.97693711
C        -4.12919778      -0.06406368       1.92738609
C        -2.94166959      -0.90225476       1.44496818
C        -3.17159558      -2.41796633       1.38704746
N        -3.31259118      -3.04235647       2.70446950
C        -4.66918650      -3.30540016       3.18600610
C        -5.17452173      -4.66558853       2.72832908
C        -2.24898205      -3.50043198       3.48707334
O        -2.43798644      -4.02931091       4.58720166
C        -0.81654784      -3.31444105       2.96389405
O        -0.53510176      -4.18677719       1.87478194
C         0.57330980      -3.77557372       1.09114851
C         1.98014749      -3.70696697       1.73073344
O         2.13644645      -3.84102554       2.94575729
N         3.06041158      -3.45808002       0.87883304
C         2.96266614      -3.34748168      -0.57832066
C         3.21193517      -4.68176229      -1.26507658
C         4.39967827      -3.39526457       1.47176628
C         4.69857337      -2.05709907       2.15936469
C         4.74120995      -0.83659476       1.23362589
C         5.92813494      -0.85399647       0.26661561
C         5.93294491       0.32616307      -0.71122639
C         6.11046528       1.68497867      -0.02603224
C         6.28109186       2.83424490      -1.02670414
C         7.73182486       3.28240875      -1.24427933
C         8.63036777       2.21202018      -1.86395707
C        10.06535571       2.68971042      -2.11411955
C        10.22156832       3.85892013      -3.08949965
C         9.66276381       3.57562564      -4.47490662
H        -9.19522277       5.18439793      -4.10829181
H        -7.81439129       5.06834379      -3.01315902
H        -9.24380280       6.01113970      -2.54250560
H        -9.16245356       2.97166971      -2.95477631
H       -10.61316102       3.89592651      -2.60905139
H        -9.82825710       2.86602724      -0.55742821
H        -9.74450650       4.60963681      -0.43041775
H        -7.78545302       3.58949119       0.59483621
H        -7.31877807       4.60675913      -0.74380955
H        -6.93810945       2.66123439      -2.19516045
H        -5.98595142       2.57350930      -0.73606315
H        -8.54247387       1.00526776      -1.34350809
H        -6.91327750       0.38207738      -1.34994344
H        -8.11041312      -0.30645377       0.66572942
H        -8.49617161       1.34899308       1.08245486
H        -6.71574163       0.52543615       2.49927940
H        -6.10034190       1.84263156       1.51670309
H        -5.00353338       0.20657794      -0.02142294
H        -5.71032338      -1.12860370       0.88886293
H        -3.79191123       0.97653132       2.01817140
H        -4.42812396      -0.37649167       2.93389277
H        -2.09084963      -0.68279600       2.09906837
H        -2.65694325      -0.55879458       0.44252084
H        -4.04881435      -2.66363617       0.77961342
H        -2.32108770      -2.86990826       0.87184400
H        -4.68501684      -3.26647210       4.28087282
H        -5.34060571      -2.51953555       2.82987474
H        -5.19743310      -4.73073782       1.63574993
H        -6.18809700      -4.83963965       3.10229853
H        -4.53076200      -5.47087835       3.09681362
H        -0.14017419      -3.54277491       3.79369396
H        -0.66835699      -2.26723220       2.68594245
H         0.62432545      -4.49009542       0.26391847
H         0.34766357      -2.79213901       0.66163740
H         1.97574622      -2.97387483      -0.86251612
H         3.68938598      -2.60653132      -0.92534857
H         4.21722807      -5.05681328      -1.04810211
H         2.49664714      -5.44022793      -0.93203721
H         3.11674167      -4.57353647      -2.34986606
H         5.14938413      -3.62576123       0.70825251
H         4.47366577      -4.19076645       2.22371383
H         5.65933086      -2.14043059       2.68232764
H         3.94261513      -1.86981348       2.93153909
H         3.80026754      -0.74939151       0.67921107
H         4.81057418       0.05403851       1.86917071
H         5.91275226      -1.77474039      -0.32609976
H         6.86623216      -0.86235426       0.83480829
H         4.99884094       0.32623239      -1.28666096
H         6.73999248       0.16227876      -1.43276586
H         6.95135907       1.65683473       0.67648567
H         5.21162937       1.89085085       0.56752145
H         5.73467235       3.70310197      -0.63713901
H         5.81621546       2.58680574      -1.98850479
H         8.15836347       3.60975328      -0.28816840
H         7.70628817       4.16409898      -1.89444983
H         8.18786545       1.84522725      -2.79677273
H         8.68952343       1.35316009      -1.18566714
H        10.64935144       1.83954499      -2.48880286
H        10.51775536       2.97399183      -1.15583198
H         9.75323524       4.76178621      -2.68315088
H        11.29065313       4.08492116      -3.18511835
H         9.89877965       4.40336775      -5.15141565
H        10.09529822       2.66177212      -4.89416496
H         8.57443909       3.46673279      -4.45330861
