63
lig_136 free ligand  charge=0 uhf=0  ETKDGv3 + MMFF94s  smiles=CCCCOP(=S)(CP(=S)(OCCCC)OCCCC)OCCCC
C         4.83036933      -4.17398936      -2.60195736
C         4.21812516      -2.78342663      -2.54048945
C         2.69847713      -2.83370474      -2.71502919
C         2.06909124      -1.44491118      -2.69057085
O         2.29426457      -0.84911189      -1.42240970
P         1.40081917       0.42325485      -0.95309799
S         1.31851360       1.89040657      -2.21712943
C        -0.13468505      -0.37095536      -0.45958750
P        -1.34745353       0.47421719       0.56177773
S        -0.89106088       0.90249325       2.39614793
O        -2.65342455      -0.47912331       0.40569618
C        -2.66610087      -1.77636245       0.98581546
C        -3.93896288      -1.92433124       1.80965466
C        -4.12365393      -3.31814616       2.40651266
C        -3.07132715      -3.67543387       3.44481766
O        -1.78551470       1.75636395      -0.31697942
C        -2.54832116       1.63251017      -1.50457242
C        -3.99973642       2.02888095      -1.24763645
C        -4.17902014       3.42506491      -0.64402187
C        -3.67644321       4.54293992      -1.54405059
O         2.08258531       0.74388809       0.47392319
C         3.47628406       1.00283799       0.53798963
C         3.79253876       1.74211569       1.83307883
C         3.14962837       3.13051379       1.87265761
C         3.48589363       3.86181151       3.16257523
H         5.91608514      -4.11589857      -2.47638285
H         4.62502311      -4.65096927      -3.56561930
H         4.43031972      -4.81401073      -1.80907254
H         4.66155226      -2.16050637      -3.32598084
H         4.47425796      -2.32403744      -1.57891357
H         2.45123481      -3.32246387      -3.66448105
H         2.26882319      -3.43885306      -1.90735637
H         0.99406690      -1.52864578      -2.87688806
H         2.51051458      -0.81362638      -3.46819417
H         0.14074949      -1.28743688       0.07559517
H        -0.63757950      -0.70039168      -1.37489432
H        -2.65042319      -2.50573867       0.16966205
H        -1.77449077      -1.93798930       1.59750437
H        -3.95155867      -1.16834819       2.60462165
H        -4.80184157      -1.69229990       1.17230638
H        -5.11104415      -3.36520480       2.88105769
H        -4.11937146      -4.06977530       1.60864376
H        -2.07712294      -3.75942333       2.99642365
H        -3.03112266      -2.92306330       4.23880697
H        -3.30962727      -4.64020561       3.90411519
H        -2.10257377       2.28326657      -2.26239815
H        -2.50138024       0.61178619      -1.89666945
H        -4.44543348       1.31014569      -0.54965543
H        -4.56397628       1.95594453      -2.18467670
H        -5.24710248       3.58415343      -0.45283751
H        -3.67553258       3.48544297       0.32766405
H        -4.14097082       4.48984662      -2.53368379
H        -2.59030660       4.50011230      -1.66764969
H        -3.92141687       5.51609240      -1.10648652
H         3.80159012       1.58997421      -0.32645014
H         4.00526009       0.04451833       0.52192002
H         3.42551879       1.15590424       2.68436467
H         4.87965481       1.83589484       1.93690272
H         3.49903380       3.72518997       1.02060332
H         2.06063070       3.04759447       1.78409560
H         4.56731737       3.99493231       3.26785439
H         3.01954604       4.85195492       3.16941284
H         3.12081056       3.30833184       4.03362143
