94
lig_104 free ligand  charge=0 uhf=0  ETKDGv3 + MMFF94s  smiles=CCCCCCCCOc1cc(C(=O)N(C)c2ccc(C(C)(C)C)cc2)nc(C(=O)N(C)c2ccc(C(C)(C)C)cc2)c1
C        -6.85308592       6.98992872       3.40214785
C        -6.16546190       7.65376494       2.21935375
C        -4.63942851       7.54862738       2.26310323
C        -4.07241609       6.12516660       2.26195164
C        -4.50882854       5.23184127       1.09565959
C        -4.08782477       5.77182607      -0.27313428
C        -4.53372477       4.88209084      -1.44059438
C        -3.92149902       3.48120535      -1.44778497
O        -2.49808553       3.59681839      -1.45088888
C        -1.77430208       2.44082827      -1.37620997
C        -2.28578422       1.15074429      -1.43233462
C        -1.40318638       0.07473154      -1.33979578
C        -1.98315356      -1.31597333      -1.26778578
O        -3.17057855      -1.39474048      -0.94356904
N        -1.16536405      -2.42724632      -1.55862461
C        -0.10820962      -2.30719315      -2.55745201
C        -1.38387189      -3.72287399      -0.95286143
C        -0.62760738      -4.84403677      -1.32724040
C        -0.81640977      -6.10445309      -0.73281378
C        -1.76450365      -6.30229672       0.27609018
C        -2.00154528      -7.66337878       0.94946254
C        -1.11185149      -8.79783778       0.39280871
C        -1.70878633      -7.55230222       2.46125694
C        -3.47026757      -8.09492533       0.74724620
C        -2.50529782      -5.17768855       0.66798968
C        -2.31426967      -3.91981735       0.07281693
N        -0.05824624       0.21978917      -1.21282168
C         0.40661126       1.49554248      -1.14828798
C         1.87152031       1.68704638      -0.90660948
O         2.17717880       2.57726926      -0.11175147
N         2.78758777       0.87135487      -1.60232256
C         2.43994417       0.33821903      -2.91755019
C         4.12112441       0.62030606      -1.10351922
C         4.50023311       0.94917008       0.20264774
C         5.79110304       0.68457209       0.69261451
C         6.76368047       0.06659870      -0.10060718
C         8.18463360      -0.23512478       0.40174630
C         8.44283994      -1.75624546       0.34512725
C         8.44200928       0.21895851       1.85639547
C         9.21585047       0.48828068      -0.49121625
C         6.38066827      -0.28173765      -1.40439721
C         5.09031404      -0.01684116      -1.89133241
C        -0.40537445       2.61868379      -1.22111862
H        -6.47327044       7.38494171       4.34965565
H        -7.93076414       7.17878593       3.36438416
H        -6.70643387       5.90591964       3.39512324
H        -6.55159598       7.23041407       1.28578365
H        -6.43680703       8.71644677       2.21133049
H        -4.27588752       8.06081738       3.16313989
H        -4.22531025       8.10689269       1.41528638
H        -4.34427160       5.62798523       3.20088036
H        -2.97697535       6.19187598       2.26500964
H        -5.59402329       5.08244019       1.11988941
H        -4.05729545       4.24572942       1.25404508
H        -2.99992755       5.90579855      -0.29907343
H        -4.52887500       6.76284413      -0.42917677
H        -4.24530437       5.39073394      -2.36917831
H        -5.62680047       4.79900363      -1.44547566
H        -4.26185363       2.91895394      -0.57095638
H        -4.25099748       2.96300025      -2.35646559
H        -3.34837039       0.95588232      -1.52487202
H        -0.16498437      -1.36090448      -3.10044439
H        -0.22767815      -3.08139597      -3.32223695
H         0.86577423      -2.39791120      -2.06835241
H         0.14182186      -4.78638841      -2.09011380
H        -0.19062155      -6.91866331      -1.08803765
H        -1.32014809      -9.74797649       0.89929667
H        -1.28565343      -8.95829048      -0.67763858
H        -0.04656266      -8.58332204       0.53746291
H        -1.83805349      -8.51945749       2.96104672
H        -0.67961551      -7.21911296       2.64040396
H        -2.37601553      -6.84161307       2.96122086
H        -3.65695817      -9.08090214       1.18874410
H        -3.72093474      -8.15377980      -0.31858784
H        -4.17520594      -7.39742975       1.21278510
H        -3.25183041      -5.25308135       1.45624029
H        -2.91780801      -3.10628725       0.46250125
H         1.44454328       0.64140569      -3.24791631
H         3.13328326       0.73835280      -3.66494612
H         2.49321325      -0.75369318      -2.89563671
H         3.80356999       1.40645353       0.89919510
H         5.99660034       0.97906682       1.71838559
H         9.43929780      -2.00266991       0.73015169
H         7.70782710      -2.30385054       0.94694901
H         8.38839520      -2.14793503      -0.67655674
H         8.30878623       1.30107730       1.97074323
H         7.76990862      -0.28430143       2.56123051
H         9.46746370      -0.01416182       2.16749342
H        10.23783117       0.31724923      -0.13313763
H         9.17897231       0.14305545      -1.53027114
H         9.04143019       1.57079513      -0.49775850
H         7.08556206      -0.77125426      -2.07329978
H         4.88754673      -0.32575046      -2.91128024
H         0.01867270       3.61555929      -1.14275973
