147
lig_085 free ligand  charge=0 uhf=0  ETKDGv3 + MMFF94s  smiles=CCCCCCCCN(CCCCCCCC)C(=O)COCC(=O)NCCCOCCCNC(=O)COCC(=O)N(CCCCCCCC)CCCCCCCC
C        14.60094934      -4.36920806      -0.55343249
C        13.21451833      -3.99897219      -0.05003245
C        13.14850140      -2.61758326       0.60637371
C        13.42748836      -1.47138983      -0.37024312
C        13.27479767      -0.08844302       0.26790618
C        11.85003414       0.31873973       0.66576253
C        10.89144453       0.50358258      -0.51865729
C        10.06881623      -0.74313471      -0.85787250
N         8.68730170      -0.69387649      -0.35490915
C         8.43328608      -1.18731987       0.99999801
C         8.47661229      -0.11571598       2.09931576
C         7.25153278       0.80611778       2.16201905
C         7.36187058       2.07898758       1.31460839
C         7.84392563       3.31470909       2.08469571
C         9.27960226       3.20672964       2.59758736
C         9.74348780       4.51732493       3.23415019
C        11.17177963       4.41108661       3.74472704
C         7.60321217      -0.29507515      -1.13129850
O         6.43211212      -0.43719033      -0.76062162
C         7.87522635       0.31458536      -2.51760196
O         8.04190690      -0.62609142      -3.56730132
C         6.92063690      -1.47728141      -3.76992732
C         5.58330928      -0.81690665      -4.14863407
O         5.27047506      -0.58421883      -5.31330768
N         4.77901130      -0.50830476      -3.07127423
C         3.48469051       0.12489075      -3.22741806
C         2.39557490      -0.89913808      -3.53446281
C         1.03329309      -0.23756689      -3.72116747
O         0.64854195       0.53329597      -2.58288959
C         0.10349399      -0.21915982      -1.50150910
C        -1.33207797      -0.67277132      -1.75121569
C        -2.23713934       0.48276996      -2.16777380
N        -3.61587412       0.06077636      -2.28088734
C        -4.10610526      -0.60283171      -3.38416333
O        -3.43146731      -0.87565611      -4.37376187
C        -5.59981726      -0.91905080      -3.29498428
O        -5.91140946      -1.64199454      -2.10639058
C        -7.08618188      -1.17444258      -1.45838679
C        -6.90698896       0.14584520      -0.68322308
O        -5.79660045       0.68283616      -0.61192984
N        -8.03527075       0.70308767      -0.08357967
C        -9.38429577       0.13439554      -0.17002048
C       -10.18221113       0.74419083      -1.32544003
C       -11.63699981       0.26765467      -1.36595877
C       -11.77522481      -1.21955214      -1.70064898
C       -13.22974750      -1.66045796      -1.89541010
C       -14.14116103      -1.49034545      -0.67501140
C       -13.67977381      -2.20221075       0.59883652
C       -13.57040879      -3.71098317       0.44485599
C        -7.87956572       1.97232740       0.63350302
C        -7.29961534       1.81009416       2.04447926
C        -8.18417128       1.04666407       3.03479934
C        -9.48552132       1.77892324       3.37454516
C       -10.33510673       0.96569681       4.35378154
C       -11.62519532       1.67491944       4.77736199
C       -12.59576960       2.02500616       3.64596400
C       -13.04921902       0.82080137       2.83599772
H        14.60438667      -5.40154420      -0.91791587
H        14.91249922      -3.72590715      -1.38144025
H        15.34389778      -4.29008110       0.24641419
H        12.90107040      -4.74797402       0.68706559
H        12.49887046      -4.05205833      -0.87878220
H        13.86121658      -2.57255119       1.43888271
H        12.15063698      -2.50364904       1.04286743
H        12.78628020      -1.55575024      -1.25387949
H        14.45977211      -1.55436333      -0.73057365
H        13.67087424       0.66044217      -0.42968781
H        13.91175581      -0.03828465       1.16008394
H        11.44275754      -0.37934395       1.40308247
H        11.93110742       1.28646713       1.17794765
H        10.21806387       1.34097165      -0.30260939
H        11.46975674       0.80145648      -1.40195515
H        10.04118519      -0.85307897      -1.94574018
H        10.53374883      -1.66151042      -0.48887153
H         7.46152691      -1.69446430       1.02556284
H         9.18077075      -1.95781281       1.22330661
H         9.39576068       0.46854849       2.03424268
H         8.52037039      -0.65299314       3.05582103
H         6.36213579       0.24336408       1.85467904
H         7.07533910       1.08812622       3.20770534
H         7.99970388       1.92461636       0.44036546
H         6.36106646       2.31203752       0.92883353
H         7.16603707       3.51001219       2.92474977
H         7.76756892       4.18070728       1.41508620
H         9.35078305       2.40562424       3.34156974
H         9.94799975       2.94828341       1.76814686
H         9.08158615       4.78178429       4.06697427
H         9.68393367       5.32997161       2.50086561
H        11.48510740       5.35845495       4.19436235
H        11.25936184       3.62855141       4.50520320
H        11.86339979       4.17658336       2.92916653
H         8.77502885       0.93568791      -2.47369407
H         7.06340700       1.00991492      -2.76013675
H         7.17951500      -2.15150401      -4.59473215
H         6.77923184      -2.12341443      -2.89573983
H         5.12523851      -0.66242956      -2.12303251
H         3.54980980       0.86963493      -4.02843335
H         3.27525985       0.64970431      -2.28961542
H         2.64832810      -1.45730512      -4.44380573
H         2.35571678      -1.63127797      -2.71994961
H         1.08405484       0.45497109      -4.56875011
H         0.27136166      -0.98322046      -3.96853109
H         0.74282616      -1.07468705      -1.26094117
H         0.11847143       0.43950823      -0.62586875
H        -1.35241745      -1.44588503      -2.52745969
H        -1.72070831      -1.14375141      -0.83987038
H        -1.92165764       0.89833760      -3.13091081
H        -2.20805133       1.28367242      -1.42163170
H        -4.26271753       0.25634337      -1.51300351
H        -5.87754477      -1.54158578      -4.15151549
H        -6.14638158       0.02930913      -3.36354086
H        -7.36324041      -1.94253555      -0.72888556
H        -7.89736764      -1.08447716      -2.18805422
H        -9.89822614       0.30973464       0.77963857
H        -9.31377631      -0.94889870      -0.28948721
H       -10.18463167       1.83684113      -1.22797383
H        -9.69101731       0.52591429      -2.28104691
H       -12.16962882       0.85490705      -2.12406786
H       -12.11163032       0.48750418      -0.40324985
H       -11.30728231      -1.83278938      -0.92400647
H       -11.22930794      -1.42791339      -2.62933838
H       -13.23699280      -2.71082166      -2.21008682
H       -13.66288294      -1.09472842      -2.73004117
H       -15.14141149      -1.85528245      -0.94095305
H       -14.26113164      -0.42287431      -0.45542945
H       -12.71899690      -1.79921944       0.93628030
H       -14.40228196      -1.98534235       1.39500707
H       -12.77910751      -3.98610462      -0.25856484
H       -13.33072784      -4.17031320       1.40925093
H       -14.51345139      -4.13927813       0.09095502
H        -8.83789921       2.50066196       0.65409755
H        -7.19461962       2.60444499       0.05469383
H        -7.09147651       2.80728454       2.45162315
H        -6.33406721       1.29360231       1.98261967
H        -7.61205469       0.90089878       3.95989773
H        -8.40194620       0.04476367       2.64800279
H       -10.05761005       1.96313404       2.46134114
H        -9.25212756       2.75650622       3.81300360
H       -10.57268900      -0.01135352       3.91712689
H        -9.74560762       0.76315095       5.25687424
H       -12.14529494       1.03779656       5.50368626
H       -11.36524626       2.59849147       5.30944466
H       -13.47959916       2.50199505       4.08678367
H       -12.14851084       2.76792015       2.97653974
H       -12.21879864       0.37929042       2.27768121
H       -13.81222949       1.12051877       2.11039154
H       -13.48074601       0.05074622       3.48304364
