149
lig_062 free ligand  charge=0 uhf=0  ETKDGv3+randomCoords + MMFF94s  smiles=CCCCCCCCN(CCCC(CCCC)CCCCCC)C(=O)COCC(=O)N(CCCCCCCC)CCCC(CCCC)CCCCCC
C         3.04519360       2.86753948      -2.40786685
C         3.67999047       2.57960933      -1.05672982
C         4.58721119       1.34536388      -1.03618970
C         3.98136783       0.01781325      -1.50658738
C         3.18430223      -0.76555277      -0.45719414
C         1.85766169      -0.11744642      -0.06892579
C         0.97386081      -1.02059998       0.79684531
C         0.23158982      -2.07084544      -0.03108900
N        -0.57202596      -2.96666786       0.79938812
C         0.12403479      -4.07294501       1.45382798
C        -0.14251563      -5.44340652       0.81312745
C         0.53308292      -5.65781497      -0.55212030
C        -0.30487971      -5.24097158      -1.78844073
C         0.59381879      -5.17903266      -3.05102866
C         1.54858589      -3.97944538      -3.06768018
C         2.36241430      -3.93005479      -4.36161318
C         3.30394316      -2.73581676      -4.37769555
C        -1.46921617      -6.24210275      -2.00936846
C        -2.54476273      -5.72192664      -2.97288775
C        -3.69379990      -6.71020447      -3.18882465
C        -4.53894512      -7.07124024      -1.96198091
C        -5.34027644      -5.90986750      -1.36684704
C        -4.62755788      -5.19791991      -0.22781038
C        -1.92513122      -2.79121624       1.08005229
O        -2.52831432      -3.53978175       1.85588147
C        -2.69710238      -1.68358883       0.34766665
O        -2.28943179      -0.36751092       0.69321119
C        -3.20895206       0.60932272       0.21559121
C        -2.89561679       2.02403174       0.72792537
O        -3.64881006       2.55022563       1.55290080
N        -1.77206917       2.68386750       0.22701560
C        -0.87969617       2.12473654      -0.78721388
C        -1.33081917       2.37738136      -2.23033943
C        -1.13290079       3.82314838      -2.68995233
C        -1.40010249       3.96772599      -4.19019546
C        -1.27033471       5.40803041      -4.69548905
C         0.10184813       6.06148122      -4.50068020
C         1.23825171       5.31237277      -5.19722102
C         2.56097610       6.04856157      -5.04891628
C        -1.42681940       3.99249176       0.78921605
C        -0.33920629       3.92759700       1.87054683
C        -0.77988412       3.17433782       3.13107795
C         0.16616939       3.36612885       4.33981168
C        -0.30203123       2.53834438       5.56033598
C        -1.66001100       2.98284864       6.11671987
C        -2.00716267       2.32280066       7.45416833
C        -2.19036834       0.81604896       7.35680321
C         1.65473474       3.07872443       4.02797890
C         1.96235723       1.63341373       3.62421682
C         3.38980398       1.44149186       3.09891699
C         4.47030534       1.67065473       4.15734777
C         5.89077664       1.49391878       3.61302019
C         6.20700341       0.07047563       3.18043008
H         2.29795866       2.11305325      -2.67002052
H         2.53596563       3.83632554      -2.38119008
H         3.79947395       2.90382797      -3.19992663
H         4.28901114       3.44708763      -0.77250024
H         2.89711509       2.50852242      -0.29891619
H         5.00059216       1.22351698      -0.02757499
H         5.44410493       1.56322405      -1.68774332
H         4.82014315      -0.62684436      -1.80270256
H         3.38169203       0.15207679      -2.41248086
H         3.79898193      -0.91360567       0.43871223
H         2.99535937      -1.76344960      -0.86931787
H         2.05973639       0.78564671       0.51029620
H         1.31639589       0.18597687      -0.97096496
H         0.24003212      -0.39720371       1.32010398
H         1.57879527      -1.49576607       1.57810009
H         0.94372628      -2.68672567      -0.58395356
H        -0.40080821      -1.57752134      -0.77353345
H         1.20017944      -3.86711123       1.48095213
H        -0.21078831      -4.11049954       2.49797948
H         0.27276657      -6.19440525       1.49809687
H        -1.21725625      -5.63846002       0.76468097
H         1.50079761      -5.14697006      -0.54052010
H         0.76561553      -6.72706640      -0.64973300
H        -0.73531700      -4.24872621      -1.61862929
H         1.16977006      -6.10925569      -3.13776784
H        -0.02570385      -5.11553841      -3.95109550
H         2.23854106      -4.02444657      -2.21936006
H         0.96943727      -3.05340213      -2.97134078
H         2.94653372      -4.85129420      -4.46955131
H         1.68914811      -3.86842226      -5.22443575
H         2.74714880      -1.79639062      -4.30093450
H         4.01281933      -2.78379730      -3.54487390
H         3.87624013      -2.71655517      -5.31035546
H        -1.94501590      -6.46744022      -1.05182843
H        -1.06972482      -7.19248321      -2.38577532
H        -2.93432309      -4.75976004      -2.62553574
H        -2.10017490      -5.52902242      -3.95484967
H        -4.35697023      -6.30251454      -3.96248422
H        -3.28077261      -7.63845246      -3.60412865
H        -3.92876148      -7.56047666      -1.19507268
H        -5.26073681      -7.82932156      -2.29456209
H        -6.27806006      -6.31259608      -0.96398062
H        -5.61839307      -5.18969427      -2.14445438
H        -5.28002302      -4.43088134       0.20186660
H        -3.71452463      -4.70357019      -0.56327271
H        -4.36395958      -5.89953050       0.57009464
H        -2.59674170      -1.83573256      -0.73287373
H        -3.75577095      -1.82084937       0.60276217
H        -3.22402311       0.60560076      -0.87797726
H        -4.22025536       0.36312546       0.56296171
H        -0.82521062       1.04535259      -0.64136477
H         0.13314963       2.51054168      -0.62929800
H        -2.38169105       2.09745060      -2.36155201
H        -0.74156849       1.71986445      -2.88213083
H        -0.10876924       4.13498753      -2.45969689
H        -1.81396923       4.48364707      -2.14272356
H        -2.41874754       3.62122573      -4.40603250
H        -0.72807956       3.31131258      -4.75471489
H        -1.52065754       5.42318968      -5.76364030
H        -2.02357620       6.02884703      -4.19449218
H         0.32218522       6.16228200      -3.43176838
H         0.04995980       7.08279161      -4.89895026
H         1.00888454       5.19484760      -6.26251320
H         1.34945465       4.30843977      -4.77449689
H         2.50745810       7.04638387      -5.49580883
H         3.36099990       5.49444790      -5.54978139
H         2.83259384       6.15778377      -3.99406354
H        -2.32105493       4.47301194       1.20163651
H        -1.07711817       4.63552844      -0.02382052
H         0.56158219       3.46220916       1.45588898
H        -0.07374537       4.95642286       2.14293697
H        -0.88630685       2.10706046       2.90479436
H        -1.77642728       3.53552297       3.40980262
H         0.11549721       4.42686123       4.62362559
H         0.44733600       2.62704920       6.35710827
H        -0.35304894       1.47855481       5.28574138
H        -2.45562045       2.76276268       5.39625436
H        -1.65174476       4.06971366       6.26331683
H        -1.23127661       2.54880500       8.19482054
H        -2.93902659       2.76412252       7.82744413
H        -2.52900327       0.41619336       8.31802164
H        -2.93864299       0.55899997       6.60044796
H        -1.25269606       0.31373372       7.10154586
H         2.24246008       3.33393821       4.91855990
H         1.99969244       3.76107209       3.24227122
H         1.79865917       0.96101698       4.47395063
H         1.27349725       1.31921342       2.83433185
H         3.46571966       0.41685261       2.71864609
H         3.55902333       2.11037403       2.24680247
H         4.39057602       2.68995390       4.55119272
H         4.31199743       0.98959729       5.00212211
H         6.60021285       1.78398538       4.39731775
H         6.05449981       2.17556260       2.77014012
H         7.26348158      -0.01167531       2.90531493
H         5.61629447      -0.22570799       2.30893667
H         6.01166270      -0.63948061       3.99018597
