50
lig_176 free ligand  charge=0 uhf=0  ETKDGv3 + MMFF94s  smiles=c1ccc2c(c1)OCCOCCOc1ccccc1OCCOCCO2
C         5.73166905       1.00627961       2.00033759
C         6.21686167      -0.07162002       1.25656422
C         5.35197485      -0.80699535       0.44440531
C         4.00161167      -0.46352682       0.38378370
C         3.52485149       0.64477911       1.08953163
C         4.38380311       1.36191538       1.92093573
O         2.20853126       1.01970660       1.06233066
C         1.87370124       1.62161351      -0.19465414
C         0.38502191       1.95282161      -0.19772258
O         0.04764151       2.59172278      -1.43166571
C        -1.26220694       3.17162572      -1.43390970
C        -2.39204623       2.14162156      -1.34944052
O        -2.60598951       1.81314625       0.03202784
C        -3.66405938       0.95272671       0.18010234
C        -4.83245759       1.49027977       0.72591833
C        -5.93375928       0.66997265       0.95387047
C        -5.85684590      -0.68763762       0.65192613
C        -4.67678822      -1.23051546       0.12972490
C        -3.56179918      -0.41818218      -0.10355602
O        -2.36159491      -0.85899421      -0.59904782
C        -2.16522176      -2.27275535      -0.66891248
C        -0.76798899      -2.57991670      -1.21134556
O         0.22783220      -2.26328935      -0.23474410
C         1.47741709      -2.90089178      -0.52579183
C         2.59003649      -2.28267012       0.32088199
O         3.16987876      -1.19579490      -0.42054582
H         6.40395897       1.57242543       2.63991696
H         7.26866903      -0.34007274       1.31230655
H         5.72786626      -1.64465342      -0.13501634
H         4.00438748       2.19983638       2.49851254
H         2.45366965       2.54321165      -0.33496065
H         2.08988515       0.96139409      -1.04253486
H         0.14995659       2.60641929       0.65068321
H        -0.18508590       1.02506581      -0.08493228
H        -1.32964238       3.91226807      -0.62874391
H        -1.34706951       3.70447130      -2.38672047
H        -2.12749452       1.25284980      -1.93192884
H        -3.30909699       2.58919086      -1.75201244
H        -4.87787289       2.54659359       0.97463390
H        -6.84566129       1.08636732       1.37325357
H        -6.71452620      -1.33128093       0.83216719
H        -4.66371120      -2.29462025      -0.07896564
H        -2.89542265      -2.70802214      -1.36067442
H        -2.27332271      -2.70959345       0.33098826
H        -0.71386267      -3.64745831      -1.45487476
H        -0.56620269      -1.98965180      -2.11181788
H         1.70709530      -2.80667459      -1.59366034
H         1.36930053      -3.96003473      -0.26788587
H         3.37129202      -3.03387149       0.48697197
H         2.19281622      -1.93958115       1.28428998
