26
lig_173 free ligand  charge=0 uhf=0  ETKDGv3 + MMFF94s  smiles=S=P(S)(c1ccccc1Cl)c1ccccc1Cl
S        -0.53234651       2.79234495       1.64439308
P        -0.11743194       0.88299207       1.28597461
S         0.46911228      -0.17071712       3.06005695
C         1.36590822       0.57529971       0.24568817
C         2.12366184       1.67897124      -0.20339166
C         3.26501108       1.51275910      -0.99175753
C         3.68126624       0.23833478      -1.35109062
C         2.95419327      -0.86801753      -0.92131830
C         1.80759181      -0.70730987      -0.13031206
Cl        0.99364177      -2.16257862       0.31758365
C        -1.51536775       0.00730593       0.53303267
C        -1.52093115      -0.19203419      -0.86609828
C        -2.57175997      -0.84993280      -1.50906845
C        -3.66002131      -1.29870802      -0.77375428
C        -3.70512693      -1.06419371       0.59779128
C        -2.65257620      -0.40180642       1.24554166
Cl       -2.88761877      -0.06270514       2.91935519
H         1.27942308       0.79733985       3.50616632
H         1.83861693       2.69708532       0.05624273
H         3.82871474       2.38341917      -1.32108909
H         4.57036271       0.10457927      -1.96251231
H         3.28888554      -1.86343377      -1.20733949
H        -0.69950559       0.16914896      -1.48198489
H        -2.54133305      -1.00413829      -2.58542876
H        -4.48319994      -1.80874975      -1.26770466
H        -4.57917041      -1.38525509       1.16102406
