104
lig_129 free ligand  charge=0 uhf=0  ETKDGv3 + MMFF94s  smiles=CCCCN(CCCC)C(=O)COCC(=O)N(CCN(C(=O)COCC(=O)N(CCCC)CCCC)C(C)C)C(C)C
C        -2.08001415       6.93540305       0.48884085
C        -2.69303706       5.54474361       0.55763376
C        -1.63474928       4.48242469       0.84546586
C        -2.20495442       3.06834419       1.01523340
N        -2.92193462       2.51842617      -0.14260404
C        -4.32205456       2.12448437       0.05936131
C        -5.30327249       3.24840811      -0.26997609
C        -6.76916246       2.83630987      -0.11934225
C        -7.22124528       1.81248688      -1.14934178
C        -2.34368272       2.20442290      -1.37326678
O        -3.02052666       1.75932022      -2.30671793
C        -0.81829190       2.39729281      -1.54941790
O        -0.10346682       1.59045913      -2.47722050
C        -0.46200303       0.21808240      -2.48752401
C        -0.58680975      -0.57673806      -1.16094280
O        -0.34979828      -0.02838500      -0.08199424
N        -0.98552554      -1.91708533      -1.23615432
C        -1.15393361      -2.64909039      -2.50524801
C         0.15505961      -3.18974685      -3.12070390
N         0.84962872      -4.21716244      -2.32644922
C         2.09254071      -4.00865182      -1.70822946
O         2.70962082      -4.91965574      -1.15449404
C         2.66826624      -2.57051366      -1.72194932
O         3.87200751      -2.27007872      -1.03791346
C         3.85436452      -2.61339867       0.33899555
C         4.66138053      -1.64659656       1.22202248
O         5.71123078      -2.02826131       1.74985311
N         4.14565960      -0.36908404       1.46173033
C         2.95265426       0.18424127       0.81208937
C         3.24818929       0.89409691      -0.51517047
C         3.89470941       2.27708766      -0.40905581
C         3.01716596       3.30971711       0.28202727
C         4.85667895       0.48028093       2.41787230
C         4.59346514       0.09893976       3.88012459
C         3.14080632       0.31791045       4.30604730
C         2.94512812       0.02218611       5.78500020
C         0.27771693      -5.58134489      -2.37744388
C         0.09120023      -6.23543456      -1.00606287
C         1.07061122      -6.48927672      -3.32004064
C        -1.38238072      -2.62827721       0.00023313
C        -2.62879769      -2.00086564       0.63247498
C        -0.25881181      -2.78101151       1.02461613
H        -2.85394533       7.68044619       0.27938887
H        -1.32832634       6.99381902      -0.30485667
H        -1.60087237       7.20065271       1.43667184
H        -3.18715788       5.33361419      -0.39654452
H        -3.45788800       5.53145181       1.34197500
H        -0.87766482       4.51002855       0.05776195
H        -1.11206714       4.74456971       1.77437494
H        -2.87909395       3.06919774       1.88006157
H        -1.39263712       2.37567360       1.26098776
H        -4.45043820       1.78960363       1.09537591
H        -4.53186737       1.25060830      -0.56652447
H        -5.12510664       3.62004702      -1.28632672
H        -5.12193493       4.08973970       0.40689800
H        -7.39290843       3.73202295      -0.22548476
H        -6.94638999       2.44453305       0.88895960
H        -6.71853799       0.85129273      -1.00956471
H        -7.02155538       2.16355680      -2.16665675
H        -8.29810108       1.63806134      -1.05679660
H        -0.29874457       2.32245401      -0.59346855
H        -0.68532247       3.42969247      -1.89145209
H         0.31182908      -0.27316953      -3.08271241
H        -1.39568454       0.11809488      -3.04731861
H        -1.62030074      -1.97981344      -3.23391004
H        -1.87030069      -3.46443725      -2.35707517
H        -0.07320841      -3.63998199      -4.09501475
H         0.82632357      -2.36004069      -3.33696449
H         2.86309448      -2.31858168      -2.76966515
H         1.89751550      -1.88835933      -1.35559418
H         4.30725310      -3.60556002       0.44596134
H         2.83921535      -2.67569374       0.74262180
H         2.43656395       0.84552852       1.51452621
H         2.25651055      -0.63261915       0.61468896
H         2.30476364       1.00099095      -1.06299937
H         3.89814488       0.26829710      -1.13559707
H         4.86381006       2.21123575       0.09546191
H         4.10359628       2.63347587      -1.42543548
H         2.04216850       3.38787248      -0.20881743
H         2.85473462       3.06563741       1.33531743
H         3.49450322       4.29410784       0.24103213
H         4.58717595       1.52785539       2.25596634
H         5.93191612       0.39336262       2.22055636
H         5.24847571       0.70863571       4.51477163
H         4.86893189      -0.94765295       4.05508115
H         2.47526643      -0.33207210       3.72731039
H         2.84478971       1.35388681       4.10473295
H         3.56751337       0.67789667       6.40222727
H         1.89988208       0.18124161       6.06801904
H         3.20536096      -1.01593896       6.01503211
H        -0.72962342      -5.48361571      -2.80191255
H         1.03855345      -6.53215141      -0.54779531
H        -0.41985019      -5.56337457      -0.31259486
H        -0.51583716      -7.14274693      -1.10037633
H         1.16055262      -6.03407799      -4.31224488
H         2.08306833      -6.67974659      -2.95065113
H         0.57000417      -7.45630329      -3.43677247
H        -1.66710974      -3.64557940      -0.29055914
H        -3.43599522      -1.91890330      -0.10359384
H        -2.43375979      -0.99744527       1.02350937
H        -2.99064859      -2.61611631       1.46315153
H         0.05602775      -1.82814953       1.45738943
H         0.61548930      -3.25067632       0.57058694
H        -0.58378814      -3.42080162       1.85252257
