98
lig_130 free ligand  charge=0 uhf=0  ETKDGv3 + MMFF94s  smiles=CCCCN(CCCC)C(=O)COCC(=O)NCCCCCCNC(=O)COCC(=O)N(CCCC)CCCC
C        10.96383062       1.88081667       3.56260509
C        11.04182122       0.53826764       2.85245633
C         9.73532852       0.13492835       2.16606086
C         9.34992789       1.06502508       1.01080796
N         8.17044977       0.59442366       0.27880414
C         8.39043614      -0.07572611      -1.00833365
C         8.89791978      -1.50954963      -0.84612900
C         8.86211388      -2.31216897      -2.14797538
C         9.77894700      -1.75520058      -3.22590926
C         6.92064960       0.79807860       0.85975323
O         6.78546173       1.38994630       1.93407471
C         5.67516747       0.27382116       0.12487980
O         5.65378969      -1.12599448      -0.13405468
C         5.40091999      -1.89317630       1.04490230
C         3.91075319      -2.02632071       1.37631558
O         3.49768330      -2.23053909       2.51281958
N         3.09621632      -1.93606594       0.26721239
C         1.65571844      -2.01581921       0.34802158
C         1.01860914      -0.67106757       0.70154813
C         1.19893724       0.36936215      -0.40854233
C         0.65672366       1.75400037      -0.04021592
C        -0.83435084       1.82001308       0.29949563
C        -1.73813863       1.33382577      -0.83077003
N        -3.13258815       1.52196183      -0.50265168
C        -3.82239673       2.67940061      -0.78748370
O        -3.32578180       3.64748261      -1.35539521
C        -5.28156879       2.65670493      -0.32160803
O        -5.62896095       1.40200025       0.27469236
C        -6.94327632       1.42079711       0.81781279
C        -8.08618432       1.57094340      -0.19777076
O        -8.73012846       2.62397304      -0.21746311
N        -8.35431651       0.51348412      -1.06864820
C        -7.50488380      -0.68171567      -1.19746653
C        -8.23811172      -2.02077008      -1.07435105
C        -8.83150543      -2.28840055       0.31111957
C        -7.78004976      -2.65435196       1.34809634
C        -9.41558685       0.70935805      -2.06528150
C       -10.80946700       0.23640752      -1.63089934
C       -11.40129561       1.02091692      -0.45991595
C       -12.81768230       0.56291771      -0.14540650
H        10.13564462       1.89960465       4.27801457
H        11.89132780       2.06873363       4.11301880
H        10.82806736       2.70254433       2.85344016
H        11.29856667      -0.23146798       3.59005905
H        11.85713831       0.55920420       2.12002637
H         8.92852590       0.09906672       2.90783090
H         9.84777201      -0.88920746       1.79365927
H         9.12564370       2.06509744       1.39897664
H        10.18456724       1.17260272       0.30883508
H         9.11133169       0.52624757      -1.57353990
H         7.46975592      -0.07342351      -1.59592921
H         8.28986007      -2.03419970      -0.09975727
H         9.92300579      -1.49754205      -0.45752814
H         9.16409323      -3.34344486      -1.92987095
H         7.83544238      -2.35706477      -2.52969834
H         9.45166552      -0.76549039      -3.55793519
H        10.80870323      -1.67610779      -2.86338992
H         9.77679304      -2.41559191      -4.09901416
H         5.60731221       0.79667974      -0.83524896
H         4.78293370       0.56463320       0.69286278
H         5.77566706      -2.90518397       0.85872270
H         5.93622072      -1.48738000       1.90974094
H         3.54697395      -1.76016020      -0.62529213
H         1.38860359      -2.75796390       1.10842110
H         1.29081007      -2.37616941      -0.61936668
H        -0.04985001      -0.83861551       0.87710166
H         1.44550997      -0.28898100       1.63660923
H         2.26599810       0.48120352      -0.63660677
H         0.72454294       0.01334420      -1.33030504
H         1.22418351       2.14036207       0.81570870
H         0.85895832       2.43648908      -0.87526515
H        -1.04151128       1.24852168       1.21213310
H        -1.08270463       2.86197935       0.53966125
H        -1.51298015       1.86950999      -1.75938654
H        -1.60059778       0.26318598      -1.00948883
H        -3.65155408       0.79850163      -0.01261334
H        -5.40744482       3.46429464       0.40776374
H        -5.91007046       2.83754640      -1.19962457
H        -7.09746992       0.49247134       1.37555893
H        -7.02170559       2.22882391       1.55584611
H        -6.68041097      -0.66459690      -0.48512249
H        -7.04024352      -0.62088297      -2.18955681
H        -9.03365491      -2.07829073      -1.82430952
H        -7.53699653      -2.82692454      -1.32487517
H        -9.40701423      -1.42501769       0.66103967
H        -9.53551926      -3.12538405       0.23054433
H        -7.06535375      -1.84314837       1.50598061
H        -8.25901005      -2.87058896       2.30841054
H        -7.22300223      -3.54561982       1.04179506
H        -9.12321753       0.18064174      -2.98044024
H        -9.46759003       1.77148303      -2.33347138
H       -11.47924693       0.33612612      -2.49458358
H       -10.79419671      -0.82698295      -1.37592625
H       -10.78597584       0.88661293       0.43591658
H       -11.41680497       2.09078184      -0.69621335
H       -13.47853648       0.71117971      -1.00539449
H       -12.83581377      -0.49802702       0.12385443
H       -13.22227285       1.13399496       0.69608904
