64
lig_127 free ligand  charge=0 uhf=0  ETKDGv3 + MMFF94s  smiles=CCCCN(CCCC)C(=O)CCC(=O)N(CCCC)CCCC
C         6.52624221      -1.97179352       2.39702203
C         5.39271621      -2.87184988       1.93012093
C         4.50306520      -2.22764521       0.86580506
C         3.72359696      -1.01564505       1.38205791
N         2.80748292      -0.49477314       0.36441560
C         3.33573883       0.52007890      -0.55419973
C         3.22853962       1.92711567       0.03968872
C         3.62805282       3.02861345      -0.94346044
C         5.09339458       2.97681528      -1.34709697
C         1.50954618      -0.99819166       0.32689255
O         1.12419378      -1.87125668       1.10682856
C         0.57918724      -0.43336202      -0.73098275
C        -0.84378460      -0.96211550      -0.56965170
C        -1.78651009      -0.35295942      -1.59302625
O        -1.35936011       0.40631873      -2.46512861
N        -3.13445306      -0.70469442      -1.51004229
C        -3.69852211      -1.55600768      -0.45473750
C        -4.07197327      -0.77955344       0.81150714
C        -4.50419142      -1.72634902       1.93132863
C        -4.88834284      -0.96310600       3.18892296
C        -4.04398323      -0.20974294      -2.54904805
C        -4.94076892       0.95310507      -2.11888308
C        -4.15832819       2.18906883      -1.67398420
C        -5.09056687       3.33650526      -1.31729654
H         7.18146380      -2.51854260       3.08278919
H         6.14856945      -1.09429106       2.92983199
H         7.13091367      -1.63015704       1.55101911
H         4.78602090      -3.17215883       2.79229423
H         5.82549264      -3.78877971       1.51254859
H         3.79588877      -2.98429484       0.50320597
H         5.11285889      -1.93992450       0.00075414
H         4.40021631      -0.20902037       1.68202027
H         3.15104681      -1.30092051       2.27220917
H         4.37893246       0.26682676      -0.77165797
H         2.79870240       0.47861396      -1.50548110
H         3.84584068       2.00024599       0.94320823
H         2.19613026       2.10993281       0.36182942
H         3.00014267       2.97385094      -1.84034984
H         3.42894330       4.00051397      -0.47639537
H         5.31914845       2.07450884      -1.92288147
H         5.34098754       3.83982605      -1.97352254
H         5.74442195       2.99879506      -0.46746963
H         0.57399277       0.65929858      -0.65731745
H         0.96335638      -0.71512010      -1.71802203
H        -0.84473969      -2.05023350      -0.70030857
H        -1.20222858      -0.73343939       0.43784981
H        -2.97266377      -2.33584007      -0.20498435
H        -4.57909960      -2.07232619      -0.85456309
H        -3.22788058      -0.16990329       1.15171446
H        -4.88622735      -0.08026568       0.59899511
H        -5.35844662      -2.32846219       1.60062623
H        -3.68902307      -2.42008405       2.16784725
H        -4.04473463      -0.37465188       3.56362383
H        -5.19342203      -1.65923721       3.97645631
H        -5.72335496      -0.28229788       2.99502076
H        -4.66647302      -1.05185941      -2.87429156
H        -3.46996057       0.09681761      -3.43108951
H        -5.57959304       1.22172032      -2.96981319
H        -5.61807144       0.63216490      -1.32118979
H        -3.54019049       1.95470389      -0.80051827
H        -3.48353135       2.51079063      -2.47549524
H        -5.70304528       3.62671280      -2.17690621
H        -4.51215633       4.21053477      -1.00196939
H        -5.75919954       3.05737679      -0.49666946
