113
lig_078 free ligand  charge=0 uhf=0  ETKDGv3 + MMFF94s  smiles=CCCCCCCCN(CCCCCCCC)C(=O)COCC(=O)N(CCCCCCCC)CCCCCCCC
C        -5.41021114       7.07687686       1.31058275
C        -6.56909691       7.15588693       0.32810195
C        -6.65351755       5.95882422      -0.62368085
C        -7.59633534       4.83865592      -0.16952197
C        -7.20773678       4.09058565       1.10628719
C        -5.86464582       3.36481547       0.99849014
C        -5.56068598       2.57229493       2.27238077
C        -4.20625184       1.85487301       2.22641235
N        -4.13677892       0.80941257       1.19843193
C        -4.82629389      -0.45551699       1.46984608
C        -3.92593268      -1.41083280       2.25928246
C        -4.53341565      -2.80023618       2.46302581
C        -4.76082935      -3.61799090       1.18655217
C        -3.54529195      -3.77499250       0.26709035
C        -2.34515979      -4.44004149       0.94418365
C        -1.18425446      -4.61344219      -0.03629123
C         0.01610736      -5.26419725       0.63188426
C        -3.37457466       0.88888353       0.03363786
O        -3.34535908      -0.02903179      -0.79277018
C        -2.49957567       2.12946608      -0.19248062
O        -1.36934358       2.17923444       0.67476545
C        -0.37889789       1.21066196       0.34134418
C         0.49202299       1.52022479      -0.89494290
O         0.32956027       2.55920802      -1.54056321
N         1.47378498       0.58809287      -1.24210093
C         1.72148531      -0.66968000      -0.52687435
C         2.82380692      -0.53992287       0.52460237
C         2.95127647      -1.77520172       1.42149475
C         3.39357395      -3.02770443       0.65759176
C         3.66658334      -4.22150854       1.57989609
C         5.14531662      -4.44004604       1.91900903
C         5.78260108      -3.30146673       2.71241951
C         7.20150235      -3.64798349       3.13817160
C         2.33764640       0.90121099      -2.38484024
C         3.45851809       1.88075745      -2.02518119
C         4.33102269       2.27047649      -3.22205154
C         5.04567120       1.11659157      -3.93499194
C         5.97645145       0.31676904      -3.02032582
C         6.69114944      -0.83506871      -3.73550205
C         7.60841646      -0.43638183      -4.89397817
C         8.72621648       0.51074223      -4.48730450
H        -5.52115593       6.24723892       2.01153290
H        -5.35487934       7.99937701       1.89776126
H        -4.45766964       6.95715138       0.78446963
H        -6.42318197       8.06094068      -0.27494839
H        -7.51210342       7.29091354       0.86956198
H        -7.04823291       6.32852910      -1.57958205
H        -5.65629341       5.56436557      -0.84754268
H        -7.68102762       4.11162031      -0.98741812
H        -8.60132488       5.25749569      -0.03239043
H        -7.20460961       4.77656091       1.95969575
H        -7.99194487       3.35163235       1.31546362
H        -5.88754604       2.69061262       0.13465206
H        -5.06039718       4.08744359       0.82824464
H        -5.55508430       3.25970903       3.12747741
H        -6.36625144       1.85250941       2.45546242
H        -4.01668464       1.37882269       3.19514851
H        -3.41529954       2.59498346       2.09234049
H        -5.11866159      -0.90855043       0.51730516
H        -5.74964415      -0.25618746       2.02258937
H        -3.72830732      -0.97720542       3.24764817
H        -2.94605777      -1.49465124       1.77542683
H        -5.49217393      -2.69913576       2.98690026
H        -3.88150371      -3.36753148       3.13833588
H        -5.57681436      -3.16777042       0.60885703
H        -5.11541278      -4.61499541       1.47738527
H        -3.25137920      -2.79868851      -0.13393932
H        -3.84881005      -4.38018160      -0.59655497
H        -2.64303558      -5.41822857       1.34044438
H        -2.00596659      -3.83592128       1.79285969
H        -1.50202408      -5.23013134      -0.88498023
H        -0.88609200      -3.63737512      -0.43701185
H        -0.24058672      -6.25364026       1.02337639
H         0.83086889      -5.38510572      -0.08869079
H         0.38328836      -4.65078126       1.46088371
H        -3.09736306       3.03012783      -0.03116632
H        -2.19064711       2.15614618      -1.24323345
H        -0.84826628       0.22968067       0.22786232
H         0.29639690       1.15656939       1.20164368
H         0.80079267      -1.00853963      -0.04630798
H         1.97630794      -1.43491874      -1.26827708
H         3.78643056      -0.35208032       0.03688158
H         2.62254689       0.33086676       1.16018355
H         1.99260618      -1.96808415       1.91876792
H         3.67039917      -1.54421607       2.21369083
H         4.27173789      -2.81176563       0.03796454
H         2.58794832      -3.31297295      -0.02949944
H         3.32111711      -5.12855980       1.06718487
H         3.07553048      -4.14617902       2.50034137
H         5.71037873      -4.60148889       0.99251721
H         5.22522053      -5.36912294       2.49750464
H         5.18341385      -3.08501857       3.60407607
H         5.81598841      -2.39088964       2.10499607
H         7.21346231      -4.53417716       3.78070308
H         7.64252412      -2.81719970       3.69787258
H         7.83490949      -3.84560373       2.26746683
H         1.71724517       1.33764210      -3.17707782
H         2.74395929      -0.03556640      -2.77913891
H         3.02283268       2.79836502      -1.61070746
H         4.08537661       1.47097323      -1.22778539
H         3.70938631       2.79815890      -3.95622200
H         5.08248459       2.99330888      -2.88027348
H         5.62392280       1.55061128      -4.75873648
H         4.31062466       0.44648573      -4.39491653
H         6.71002066       0.98634563      -2.55733383
H         5.39637617      -0.12130301      -2.19994890
H         7.28148369      -1.38681991      -2.99303217
H         5.93942561      -1.53895292      -4.11405144
H         8.05773561      -1.34861498      -5.30516022
H         7.02617188       0.01131740      -5.70654667
H         9.40524093       0.67409578      -5.33036883
H         9.30921547       0.09792973      -3.65802612
H         8.33453717       1.48632608      -4.18469339
