102
lig_003 free ligand  charge=0 uhf=0  ETKDGv3 + MMFF94s  smiles=CC(C)(C)c1cc(-c2cc(C(C)(C)C)cc(-c3nnc4c(n3)C(C)(C)CCC4(C)C)n2)nc(-c2nnc3c(n2)C(C)(C)CCC3(C)C)c1
C         3.91307082       1.30440826       3.43339967
C         4.57622267       1.10058185       2.05230934
C         5.28452689       2.42270283       1.68618205
C         5.63258794      -0.01388988       2.21289453
C         3.58797787       0.71865097       0.93864253
C         2.21277154       0.57040823       1.16084316
C         1.35472795       0.22189572       0.11442690
C        -0.10732857       0.05588232       0.30472454
C        -0.95813751      -0.28850258      -0.74837045
C        -2.33834625      -0.43915754      -0.54384662
C        -3.25804588      -0.81862081      -1.71456336
C        -4.74734067      -0.94226807      -1.32120265
C        -2.82324848      -2.18142628      -2.29598770
C        -3.16402679       0.25623111      -2.81923837
C        -2.80383232      -0.22690171       0.75980850
C        -1.91925719       0.11707569       1.79023184
C        -2.38845101       0.34553414       3.17666496
N        -1.48034335       0.66775599       4.12183637
N        -1.89243157       0.88517370       5.40343845
C        -3.20308658       0.78244442       5.71218509
C        -4.10851168       0.42888893       4.71853967
N        -3.70925938       0.22051593       3.43764889
C        -5.60419942       0.30747991       4.98506325
C        -6.30508449       1.54332457       4.38390035
C        -6.17315892      -0.95444726       4.30142919
C        -5.90927597       0.19926995       6.49578999
C        -5.11594913       1.21268755       7.31296334
C        -3.59220136       1.01066840       7.16128141
C        -3.12910821      -0.20698233       7.98736631
C        -2.89395182       2.26978865       7.71685979
N        -0.58597632       0.25557548       1.55819655
N         1.82193875       0.01642106      -1.14252684
C         3.15147773       0.15201434      -1.39298863
C         3.59525927      -0.08534673      -2.78609877
N         4.90711947       0.05985836      -3.07354947
N         5.34267556      -0.15472555      -4.34629283
C         4.45936373      -0.51643415      -5.30400696
C         3.11427137      -0.63761240      -4.97747212
N         2.67644588      -0.43535082      -3.71126162
C         2.05915905      -1.05602851      -5.99347663
C         0.79422657      -0.18200130      -5.85046054
C         1.66934114      -2.52198514      -5.71204982
C         2.57264689      -0.90537373      -7.44278587
C         3.98610681      -1.45296291      -7.60801565
C         5.00140206      -0.71436674      -6.70789128
C         6.29630756      -1.55308657      -6.67390746
C         5.33375388       0.67021236      -7.30108811
C         4.04209403       0.49995029      -0.37326865
H         3.41564333       0.39139151       3.78097323
H         3.17010482       2.11017904       3.40938510
H         4.65675327       1.57480243       4.19267184
H         5.87572912       2.33578854       0.76796270
H         4.55849446       3.23032278       1.53474140
H         5.97148801       2.73638205       2.48090704
H         5.15929810      -0.97562916       2.44389896
H         6.33122456       0.21774582       3.02538648
H         6.23108927      -0.15162130       1.30568422
H         1.78121938       0.72201131       2.14636093
H        -0.52948472      -0.43902036      -1.73713109
H        -4.90095539      -1.71710937      -0.56102492
H        -5.36340795      -1.21378500      -2.18686034
H        -5.14097481       0.00297302      -0.92952559
H        -2.84807428      -2.96385452      -1.52822556
H        -3.48652684      -2.49296609      -3.11139467
H        -1.80666569      -2.15293794      -2.70369334
H        -3.43618508       1.24514563      -2.43163715
H        -2.15446620       0.33355473      -3.23785365
H        -3.83904121       0.02696995      -3.65211326
H        -3.85834180      -0.32447335       0.99982397
H        -5.90639280       2.47947194       4.78986400
H        -6.17424697       1.58755803       3.29581889
H        -7.38245301       1.52269793       4.58348735
H        -7.23977538      -1.07497858       4.52373220
H        -5.65480420      -1.85840162       4.64270999
H        -6.07096269      -0.91146211       3.21070044
H        -6.98171457       0.34662317       6.67675526
H        -5.68054131      -0.81106283       6.85799453
H        -5.39842066       2.22561259       6.99918597
H        -5.40523057       1.13495231       8.36882247
H        -3.55092977      -1.14452342       7.60881341
H        -3.42355036      -0.10676313       9.03822087
H        -2.03807103      -0.31609080       7.96183325
H        -3.13766005       3.15570439       7.11842630
H        -1.80257111       2.16627305       7.71720128
H        -3.20291587       2.46732351       8.74988758
H         0.04653610      -0.44576370      -6.60742277
H         1.03156954       0.88186257      -5.96929254
H         0.32025231      -0.30335763      -4.86918165
H         2.53637942      -3.19083078      -5.74366711
H         1.21876306      -2.63229274      -4.71810691
H         0.93898641      -2.88416580      -6.44443906
H         1.89928430      -1.42230428      -8.13844150
H         2.55998478       0.15028389      -7.74230842
H         3.98359912      -2.52582461      -7.37725604
H         4.28586464      -1.37414188      -8.66087105
H         7.09542182      -1.05005981      -6.11694115
H         6.12725920      -2.52532006      -6.19583824
H         6.67175535      -1.73814124      -7.68702861
H         5.69376831       0.58226026      -8.33243972
H         4.46290475       1.33490776      -7.30538257
H         6.11668043       1.17566815      -6.72276222
H         5.09938789       0.60048579      -0.60668684
