57
lig_147 free ligand  charge=0 uhf=0  ETKDGv3 + MMFF94s  smiles=CCN(C(=O)c1cccc(C(=O)N(CC)c2cccc(C)c2)n1)c1cccc(C)c1
C        -3.96808379       0.91147852       3.32429748
C        -3.92211749       1.80035719       2.08891747
N        -3.18196182       1.17616867       0.98615895
C        -1.82271020       1.52683699       0.86168275
O        -1.20151319       2.14108684       1.73108101
C        -1.11984373       1.26502569      -0.43021585
C        -1.66450362       1.72382457      -1.62602138
C        -0.95815026       1.49165588      -2.80060678
C         0.26492330       0.82979939      -2.73625118
C         0.74911923       0.43019748      -1.49140750
C         2.03761820      -0.32890305      -1.43394951
O         2.21345116      -1.12393373      -2.36255496
N         2.98177336      -0.07168435      -0.40839257
C         2.90952928       1.14105233       0.43057906
C         3.38308757       2.38448084      -0.31110463
C         4.12021496      -0.94883921      -0.22699590
C         4.06250542      -2.30023784      -0.59867091
C         5.15192078      -3.15821366      -0.41390649
C         6.32729805      -2.68496617       0.15862222
C         6.41614904      -1.35245827       0.56200875
C         7.69113526      -0.81923426       1.14642898
C         5.31772534      -0.49731390       0.35748952
N         0.07034724       0.62037735      -0.33687923
C        -3.81102770       0.11816250       0.25132731
C        -3.09195456      -1.02633549      -0.12107224
C        -3.70303098      -2.05902763      -0.83596710
C        -5.04976607      -1.97224768      -1.17655833
C        -5.80049040      -0.86020602      -0.78784121
C        -7.24587873      -0.74762587      -1.17554524
C        -5.17268524       0.17934021      -0.08138351
H        -2.95859354       0.66123749       3.66659248
H        -4.49462161      -0.02634842       3.12046882
H        -4.48907613       1.42266729       4.13971036
H        -4.93292447       2.07273817       1.77464311
H        -3.43621816       2.74586910       2.35858886
H        -2.61401510       2.24812608      -1.64382631
H        -1.35533939       1.81940701      -3.75759018
H         0.83145174       0.62317559      -3.64001968
H         1.89229016       1.30669083       0.78177943
H         3.48107606       1.00198056       1.35468634
H         3.34260075       3.25603242       0.34962059
H         2.75475679       2.59264534      -1.18254887
H         4.41215388       2.27284419      -0.66580881
H         3.15751161      -2.73011658      -1.01898788
H         5.07390009      -4.19858996      -0.71846336
H         7.16871881      -3.36102353       0.28853936
H         8.31965394      -0.40132328       0.35407676
H         7.48379290      -0.03797539       1.88523833
H         8.24862296      -1.61015582       1.65916593
H         5.44150483       0.54321383       0.64099621
H        -2.05438423      -1.16376037       0.17471630
H        -3.12622902      -2.93749148      -1.11558985
H        -5.51117333      -2.78220734      -1.73726476
H        -7.81124406      -0.19804692      -0.41559728
H        -7.70500754      -1.73749026      -1.26819635
H        -7.33657510      -0.22505871      -2.13272212
H        -5.76571324       1.05434287       0.16754241
