89
lig_072 free ligand  charge=0 uhf=0  ETKDGv3 + MMFF94s  smiles=CCCCCCCCN(CCCCCCCC)C(=O)CNCP(=O)(CCCC)CCCC
C        -7.95949433      -2.88978685      -2.96044344
C        -6.98077867      -4.05389779      -2.96121486
C        -5.59774840      -3.68984855      -2.41714860
C        -5.60811981      -3.32185002      -0.93171034
C        -4.18938129      -3.07002615      -0.41349343
C        -4.20040783      -2.69393825       1.06977323
C        -2.79980588      -2.54124149       1.66823260
C        -2.01204673      -1.37044486       1.07424592
N        -0.73287329      -1.17118307       1.76465433
C        -0.75324093      -0.33502127       2.97012250
C        -0.19461930       1.07800435       2.76817089
C        -0.94487180       1.94454679       1.75159294
C        -2.33726377       2.36458236       2.23068008
C        -3.13373867       3.13486836       1.17155282
C        -2.50800001       4.48196377       0.80106890
C        -3.41038638       5.34081048      -0.08880812
C        -3.66301724       4.73425252      -1.46048417
C         0.36181420      -1.90121134       1.30417974
O         0.25827642      -2.69062187       0.35947053
C         1.74271377      -1.66847050       1.94115979
N         2.57156756      -0.76718697       1.10937133
C         3.09212921      -1.46196930      -0.07680435
P         4.35467144      -0.38536331      -0.79519529
O         4.96527936      -0.98663958      -2.03214959
C         5.56021166      -0.05847030       0.50022760
C         6.36066241      -1.27538042       0.96422537
C         7.82074587      -1.27610040       0.50411179
C         7.99215029      -1.37979368      -1.00170510
C         3.52560286       1.17517133      -1.14017499
C         4.09638561       1.99711956      -2.29302540
C         5.50597072       2.54307282      -2.07186897
C         5.59625468       3.54297704      -0.92962567
H        -8.20440423      -2.57183164      -1.94288532
H        -7.55046972      -2.03178661      -3.50318062
H        -8.89398425      -3.18495166      -3.44847441
H        -7.40212133      -4.88520268      -2.38411038
H        -6.86520569      -4.41036902      -3.99178330
H        -4.93324409      -4.54955368      -2.56877216
H        -5.17960794      -2.86088490      -3.00115084
H        -6.07104743      -4.13221220      -0.35582387
H        -6.21241151      -2.42187129      -0.77173201
H        -3.73198411      -2.26676575      -1.00180267
H        -3.57952148      -3.96961117      -0.55990324
H        -4.72944536      -3.47276662       1.63297728
H        -4.76396695      -1.76379496       1.21225859
H        -2.23817750      -3.47444080       1.53850868
H        -2.90442518      -2.39623821       2.75065056
H        -1.81475003      -1.55084349       0.01208907
H        -2.59378345      -0.44549566       1.13380923
H        -0.17652717      -0.84174881       3.75053152
H        -1.77904164      -0.28849621       3.35180100
H         0.85097183       1.01850548       2.45270934
H        -0.18846635       1.59107340       3.73795933
H        -0.34243198       2.84421096       1.57843920
H        -1.01134448       1.42687259       0.78831348
H        -2.92133527       1.48088335       2.50823327
H        -2.24512100       2.97527762       3.13707881
H        -4.14510478       3.30392229       1.56135459
H        -3.23830077       2.50850223       0.27818171
H        -1.54944790       4.32643719       0.29308979
H        -2.29539729       5.04452633       1.71838159
H        -2.93536900       6.32005263      -0.22267313
H        -4.36843325       5.51989373       0.41291881
H        -4.24105756       3.80826997      -1.38925604
H        -2.72104017       4.51653112      -1.97363972
H        -4.23298935       5.43336846      -2.08087505
H         1.66401834      -1.23073000       2.93571473
H         2.23019756      -2.64027547       2.08309709
H         1.97766546       0.00509541       0.80281049
H         2.30764773      -1.63818757      -0.81812906
H         3.55692771      -2.41630720       0.18795541
H         5.01859017       0.35100072       1.36042181
H         6.23661053       0.73683356       0.17533773
H         6.36574843      -1.28472087       2.06139024
H         5.87506041      -2.20341419       0.64552571
H         8.32415702      -0.37165047       0.86560846
H         8.33043960      -2.12702540       0.97193444
H         7.48045514      -2.26315745      -1.39594633
H         7.60370038      -0.49285289      -1.50983583
H         9.05422324      -1.46513754      -1.25333582
H         2.49015919       0.93088469      -1.40749250
H         3.46975600       1.77506819      -0.22629769
H         4.10561444       1.37626679      -3.19676948
H         3.41815250       2.83477488      -2.49717563
H         6.21115655       1.72291613      -1.90581595
H         5.82866853       3.04376902      -2.99293037
H         4.90111776       4.37481128      -1.08141213
H         6.60872996       3.95521809      -0.87123075
H         5.37154803       3.07843483       0.03436429
