117
lig_028 free ligand  charge=0 uhf=0  ETKDGv3 + MMFF94s  smiles=CCCCCCCCC(C)(C)SCC1CN(C(=O)COCC(=O)N2CC(C)C(CSC(C)(C)CCCCCCCC)C2)CC1C
C        12.54546016       3.44844142      -1.56562248
C        12.41949887       2.06270069      -0.95031151
C        13.66894189       1.22326549      -1.20724458
C        13.68442035      -0.12504116      -0.47842210
C        12.58196332      -1.09903669      -0.90865203
C        11.36668053      -1.07800822       0.02602588
C        10.30326509      -2.07643175      -0.42915878
C         8.93525076      -1.93228336       0.25878179
C         8.82900832      -2.22572184       1.77878197
C         9.28518429      -1.04657030       2.64944051
C         9.61092040      -3.48747220       2.17684965
S         7.04603527      -2.61316170       2.18629079
C         6.22027598      -1.02168618       1.83766333
C         4.70370571      -1.16130965       1.96561269
C         3.99074176       0.17856219       1.76335596
N         2.63714285      -0.18206676       1.38217428
C         1.63043304       0.76163329       1.34646059
O         1.84655226       1.94499336       1.61274252
C         0.22821533       0.25126094       0.95967159
O        -0.81383370       1.21981033       0.96392123
C        -0.76899745       2.07467217      -0.17317498
C        -1.28870042       1.42193885      -1.46207614
O        -0.54748668       1.26579273      -2.43423703
N        -2.60794095       1.02050851      -1.47573897
C        -3.19149141       0.37697609      -2.63883277
C        -4.53436860      -0.17482124      -2.15414188
C        -4.39326395      -1.61686838      -1.66000094
C        -4.92034329       0.78458190      -1.00377329
C        -5.61286935       2.07192291      -1.48699784
S        -7.30372768       1.74752279      -2.10567023
C        -8.39279353       2.29033578      -0.69202041
C        -7.96148064       1.61731340       0.61765010
C        -8.32307527       3.81847857      -0.56511752
C        -9.82340124       1.83085313      -1.09768576
C       -10.95433176       2.25389062      -0.14426387
C       -12.31220810       1.66430915      -0.55019238
C       -12.74678337       0.44105661       0.26789592
C       -11.83032539      -0.77121157       0.11594012
C       -12.25551492      -1.98864890       0.94646636
C       -13.60461200      -2.59596474       0.55130750
C       -14.74410769      -2.15883199       1.46094188
C        -3.55895512       1.12256932      -0.38060989
C         2.52624706      -1.60237350       1.08397341
C         3.97515737      -2.09061975       0.96673627
C         4.46461571      -1.98800703      -0.47992520
H        13.39158163       3.99378625      -1.13549414
H        12.69178756       3.38475143      -2.64863342
H        11.63706032       4.02972980      -1.37884233
H        11.54099791       1.57183985      -1.38188124
H        12.24960309       2.16279668       0.12766647
H        13.78124721       1.05516291      -2.28558863
H        14.55326333       1.78894011      -0.88744602
H        14.65161979      -0.59498551      -0.69940598
H        13.66253556       0.03392454       0.60623061
H        12.99846487      -2.11461583      -0.89474988
H        12.27730078      -0.90109331      -1.94298318
H        11.70684387      -1.33584252       1.03310239
H        10.93394118      -0.07468772       0.07036481
H        10.67962641      -3.09980123      -0.31780791
H        10.13498025      -1.93664593      -1.50543141
H         8.56093322      -0.92249552       0.04832143
H         8.26690622      -2.61837922      -0.28093862
H         8.86145385      -0.09627315       2.30822207
H        10.37175984      -0.93059807       2.63935760
H         9.00500297      -1.18634457       3.70050870
H         9.32176556      -4.35233265       1.56803915
H         9.45563649      -3.74728095       3.23126757
H        10.68956450      -3.34457041       2.05002848
H         6.56885970      -0.28308678       2.56628007
H         6.48823460      -0.66593456       0.84000561
H         4.46191142      -1.50945250       2.98151594
H         3.98437395       0.79121391       2.67087901
H         4.42435433       0.76874125       0.94799471
H         0.27567174      -0.24464536      -0.01555015
H        -0.05097064      -0.50617038       1.70045846
H         0.24468218       2.45066413      -0.34931917
H        -1.39250520       2.94944610       0.03913747
H        -2.51763287      -0.38673674      -3.04049675
H        -3.33174604       1.14833635      -3.40454819
H        -5.26230180      -0.17559214      -2.97171442
H        -4.09326702      -2.27494504      -2.48246337
H        -3.64461935      -1.71207120      -0.86690249
H        -5.34852477      -1.98301675      -1.26946403
H        -5.55172700       0.29097525      -0.25661704
H        -5.63389903       2.82056832      -0.69171928
H        -5.05390076       2.52056722      -2.31528989
H        -8.61655437       1.90261362       1.44728596
H        -6.95266283       1.91049481       0.92372159
H        -7.99281046       0.52476299       0.53851282
H        -7.30926903       4.17640205      -0.36128954
H        -8.67838627       4.31460041      -1.47569812
H        -8.94392755       4.17390382       0.26478016
H        -9.83344563       0.73894791      -1.20213238
H       -10.06999230       2.23502788      -2.09023064
H       -10.72836443       1.99003276       0.89293809
H       -11.04250655       3.34625090      -0.18011298
H       -13.07516759       2.43845981      -0.39593659
H       -12.33135917       1.42529489      -1.62015858
H       -13.75748745       0.17665503      -0.06143534
H       -12.81811250       0.71836025       1.32659922
H       -10.81660041      -0.50392292       0.43442238
H       -11.76785811      -1.05528877      -0.94151039
H       -11.48585558      -2.75764571       0.79965501
H       -12.23773293      -1.73847905       2.01395215
H       -13.84692496      -2.36770132      -0.49259496
H       -13.52789033      -3.68804683       0.62302735
H       -14.55075417      -2.45623850       2.49682671
H       -15.67913303      -2.63282761       1.14551270
H       -14.89297807      -1.07667785       1.44103389
H        -3.52088691       2.11069015       0.08611235
H        -3.28008424       0.37497183       0.37018623
H         1.93051784      -1.77444317       0.18353414
H         2.02039400      -2.07434090       1.93396609
H         4.04363460      -3.13930499       1.27775068
H         3.83113188      -2.59081930      -1.13981687
H         5.48663929      -2.36489763      -0.58030150
H         4.44445360      -0.95793391      -0.84998770
