89
lig_113 free ligand  charge=0 uhf=0  ETKDGv3 + MMFF94s  smiles=CCCCCCN(CCCCCC)C(=O)COCC(=O)N(CCCCCC)CCCCCC
C         2.68373601       4.29182946       2.10820584
C         3.29052185       2.94840154       2.48215185
C         3.85558531       2.17798973       1.28618709
C         2.84527490       1.82800530       0.19066619
C         1.62108057       1.02705855       0.63506400
C         1.88685634      -0.28525041       1.38310248
N         2.45109274      -1.37281492       0.57151101
C         3.86740056      -1.70890575       0.75276725
C         4.74750277      -1.33296463      -0.44231867
C         6.15596038      -1.93077834      -0.36353404
C         6.97604634      -1.39220784       0.81104119
C         8.40710828      -1.93013679       0.77983263
C         9.22636640      -1.40118968       1.94632666
C         1.68658559      -2.23901720      -0.21507703
O         2.19961049      -3.17506599      -0.83900239
C         0.17281001      -2.00978595      -0.32049627
O        -0.51855414      -2.37682415       0.86851996
C        -1.91216479      -2.10401152       0.78882634
C        -2.30721908      -0.61599935       0.88547457
O        -1.47668750       0.23900850       1.20414443
N        -3.62322830      -0.27093774       0.57580000
C        -4.67883021      -1.23347644       0.24863620
C        -4.87752158      -1.39548616      -1.25815455
C        -5.86734026      -2.52002212      -1.57016334
C        -6.07694421      -2.66999164      -3.07858126
C        -6.97673091      -3.85014832      -3.45119752
C        -8.41262182      -3.69315592      -2.97520208
C        -3.96410463       1.15566742       0.56415957
C        -3.47196357       1.85980514      -0.70491484
C        -3.76188535       3.36302481      -0.71833053
C        -3.07747899       4.18162821       0.38228802
C        -1.55472380       4.04608719       0.46481898
C        -0.83629008       4.45770234      -0.81044247
H         1.78896694       4.16997212       1.49121087
H         3.40222485       4.90880132       1.55951145
H         2.39051766       4.83591796       3.01178491
H         4.10564641       3.12168126       3.19522514
H         2.54347928       2.34446434       3.00842492
H         4.33140713       1.26220370       1.65381202
H         4.66035823       2.77071428       0.83294865
H         3.35679212       1.28437367      -0.60855718
H         2.49399964       2.75531210      -0.27901425
H         1.01303068       0.84012433      -0.25529991
H         1.00961723       1.66522257       1.28459663
H         0.94053384      -0.63782141       1.80033741
H         2.52885506      -0.11190243       2.25273689
H         3.93141197      -2.79121523       0.92249672
H         4.23721613      -1.22976545       1.66463295
H         4.28284462      -1.67395202      -1.37465977
H         4.82994384      -0.24596991      -0.52044584
H         6.67777591      -1.70048754      -1.30075557
H         6.08919393      -3.02367990      -0.30005270
H         6.50672297      -1.67794830       1.75914075
H         6.99489064      -0.29620218       0.77481215
H         8.39383707      -3.02565890       0.81681322
H         8.89314989      -1.64270102      -0.15975415
H         8.78523021      -1.69939153       2.90278401
H         9.28532155      -0.30839379       1.92064912
H        10.24570180      -1.79751804       1.90416001
H        -0.19286646      -2.63370209      -1.14566013
H        -0.02095370      -0.97143395      -0.59355004
H        -2.37923376      -2.61231385       1.63910195
H        -2.31195241      -2.54427876      -0.13034724
H        -5.60827107      -0.90078915       0.72553631
H        -4.43725778      -2.20234073       0.69552279
H        -3.91596087      -1.60310429      -1.74273750
H        -5.25138366      -0.45770843      -1.68397164
H        -6.82177645      -2.30357996      -1.07732737
H        -5.49276090      -3.46387641      -1.15603444
H        -6.49757138      -1.74340695      -3.48795657
H        -5.10340290      -2.81574392      -3.56298293
H        -6.55857642      -4.78012731      -3.04878705
H        -6.98139961      -3.95148431      -4.54307876
H        -9.02574367      -4.51718698      -3.35417302
H        -8.84610221      -2.75502721      -3.33580245
H        -8.47755859      -3.70816496      -1.88338895
H        -5.04886218       1.26919222       0.66888518
H        -3.50754907       1.61215406       1.44915740
H        -3.96105924       1.41303022      -1.57781898
H        -2.40018390       1.68582495      -0.85073913
H        -3.47105352       3.76392800      -1.69682711
H        -4.84555933       3.51709392      -0.64098244
H        -3.32936778       5.23863447       0.22795118
H        -3.50502331       3.91253650       1.35531187
H        -1.19671839       4.67942932       1.28563042
H        -1.27630965       3.01999337       0.72596371
H        -1.07375236       3.78557020      -1.64012226
H        -1.10700848       5.47737468      -1.10184318
H         0.24730013       4.42529004      -0.65857728
