144
lig_087 free ligand  charge=0 uhf=0  ETKDGv3 + MMFF94s  smiles=CCCCCCCCN(CCCCCCCC)C(=O)COCC(=O)NCc1ccc(CNC(=O)COCC(=O)N(CCCCCCCC)CCCCCCCC)cc1
C        -7.58782870       5.81021325       2.28810776
C        -8.50093207       4.62763621       2.00392567
C        -7.78903469       3.45759945       1.31956369
C        -7.27499850       3.80000901      -0.07866357
C        -6.78827538       2.58875284      -0.88381208
C        -5.57286011       1.87029749      -0.28755207
C        -5.90059978       0.65375921       0.58488309
C        -6.46536426      -0.52702096      -0.21308186
N        -6.60132342      -1.72159493       0.62282131
C        -7.84165841      -1.88520551       1.39071614
C        -8.85797637      -2.80545994       0.70506151
C        -9.72298561      -2.14977066      -0.37857564
C       -10.74461694      -1.14380222       0.16972114
C       -10.43210051       0.32641869      -0.12437582
C       -10.40447277       0.72286207      -1.60513968
C       -11.67219465       0.41035467      -2.40274900
C       -12.91467084       1.10080162      -1.86252389
C        -5.50300801      -2.56977101       0.72745923
O        -4.43803308      -2.34400565       0.14076200
C        -5.59293740      -3.78941953       1.66036931
O        -5.38782635      -3.50892626       3.03778318
C        -4.12708357      -2.91818027       3.32818181
C        -2.87037176      -3.71802711       2.94565048
O        -2.42800225      -4.62720552       3.64266038
N        -2.30500554      -3.34096116       1.74935181
C        -1.13709547      -4.00378228       1.22266948
C        -0.49105480      -3.18401913       0.13820353
C         0.70756031      -2.50136240       0.37863040
C         1.29796171      -1.72983179      -0.62504944
C         0.69566404      -1.61577123      -1.88547204
C         1.34037084      -0.79423208      -2.96843393
N         2.46310562      -1.48283638      -3.55181286
C         3.01842890      -1.08933051      -4.74238445
O         2.59303546      -0.15735450      -5.41952393
C         4.21638021      -1.94006061      -5.18189515
O         5.19718102      -2.23777582      -4.19909879
C         5.88149054      -1.08360362      -3.71277318
C         5.33483496      -0.56588816      -2.37223293
O         4.62334553      -1.29944415      -1.67671734
N         5.63384218       0.74405166      -1.98296897
C         4.84294984       1.27889068      -0.86420293
C         5.21734246       0.75513423       0.52670669
C         6.56554060       1.26936952       1.02733788
C         6.78165276       0.91381851       2.50107012
C         8.15438763       1.38122262       2.98723758
C         8.37382835       1.17494551       4.48889231
C         8.27175084      -0.26961128       4.98425679
C         9.27916621      -1.20726313       4.33809176
C         6.35422747       1.72345972      -2.81103377
C         7.81064452       1.41135601      -3.17966526
C         8.71091460       1.12451258      -1.98016603
C        10.17033691       0.96258107      -2.41417484
C        11.10718446       0.55831325      -1.27172144
C        11.20840486       1.61393646      -0.16792189
C        12.34149283       1.34281698       0.82542031
C        12.18211015       0.04051065       1.59378973
C        -0.50155254      -2.30058885      -2.12689843
C        -1.09202366      -3.07243319      -1.12339821
H        -8.12802165       6.57327286       2.85769343
H        -7.23502488       6.27562770       1.36311323
H        -6.71708680       5.50226315       2.87549124
H        -9.34737874       4.95928850       1.39135758
H        -8.91791363       4.27248614       2.95391102
H        -8.49544552       2.62258521       1.25155701
H        -6.95799184       3.12831984       1.95317178
H        -6.45971419       4.52953870      -0.00776865
H        -8.07882989       4.28236964      -0.64882034
H        -6.50073334       2.96256980      -1.87523180
H        -7.61933362       1.89827644      -1.05168278
H        -4.93049955       1.53298855      -1.11122058
H        -4.97102379       2.57871341       0.29438108
H        -6.59427257       0.92420533       1.38665065
H        -4.97447864       0.33667129       1.08142053
H        -5.79784801      -0.75377339      -1.05261006
H        -7.43998083      -0.28617255      -0.64049268
H        -7.58605621      -2.31977961       2.36186517
H        -8.26517018      -0.90034524       1.60790375
H        -9.52505071      -3.21774092       1.47281450
H        -8.34151040      -3.66131159       0.25480353
H        -9.09332939      -1.72176895      -1.16194856
H       -10.28829602      -2.95766691      -0.86213900
H       -10.84835574      -1.26540660       1.25499759
H       -11.73094275      -1.38472803      -0.24408846
H        -9.46686286       0.58678899       0.32121811
H       -11.17307871       0.94626863       0.39502308
H        -9.55525593       0.23944161      -2.10083161
H       -10.20887828       1.80130268      -1.66452832
H       -11.51592564       0.73744167      -3.43797155
H       -11.84067417      -0.67117241      -2.44466770
H       -13.76531899       0.91655263      -2.52654046
H       -12.76510295       2.18309625      -1.79646537
H       -13.18240672       0.72700462      -0.86996054
H        -6.57286877      -4.26190213       1.55898583
H        -4.87342747      -4.54365333       1.32078285
H        -4.08515867      -2.77166424       4.41372886
H        -4.07910377      -1.91338303       2.89237603
H        -2.79553878      -2.68527892       1.14123741
H        -1.44871200      -4.97662055       0.82461166
H        -0.43390382      -4.20340393       2.03966321
H         1.19446826      -2.56877183       1.34922321
H         2.23929956      -1.22246865      -0.42041919
H         0.61950357      -0.54454576      -3.75586356
H         1.70082275       0.15639278      -2.55786023
H         2.99900446      -2.11770803      -2.96144703
H         4.69648122      -1.45798053      -6.04172539
H         3.81314016      -2.89546982      -5.53591693
H         6.91367188      -1.39615393      -3.52557254
H         5.88428975      -0.29789246      -4.47266350
H         3.79420394       1.01783319      -1.05766768
H         4.88384728       2.37388636      -0.86523894
H         4.43541028       1.08222910       1.22392567
H         5.21624105      -0.33977763       0.54958875
H         7.36720132       0.82291803       0.43511687
H         6.62417051       2.35662876       0.89940674
H         5.99717274       1.37944827       3.10960498
H         6.68996562      -0.17116187       2.62461560
H         8.93935991       0.86973222       2.42017991
H         8.26728225       2.45129948       2.77206742
H         7.64475601       1.78204029       5.03995731
H         9.36331234       1.57033471       4.75069845
H         8.43886000      -0.27353422       6.06828777
H         7.25877201      -0.65628714       4.82839469
H         9.08606112      -1.32818917       3.26814324
H         9.21929486      -2.19830800       4.79929648
H        10.30044092      -0.83547246       4.46731593
H         5.76978780       1.86509407      -3.72763888
H         6.35558241       2.68738851      -2.28876220
H         8.20571718       2.28098443      -3.72126582
H         7.87363068       0.57919928      -3.88450843
H         8.38037416       0.20437739      -1.48634473
H         8.62551681       1.94693188      -1.26214024
H        10.23027807       0.19261703      -3.19353378
H        10.52690757       1.89617953      -2.86633337
H        10.76737355      -0.39444142      -0.84933757
H        12.10361720       0.38190379      -1.69515536
H        11.38023783       2.59780561      -0.62135437
H        10.26020371       1.67684189       0.37774694
H        13.30292367       1.33714436       0.29867131
H        12.37936076       2.17088590       1.54326825
H        12.96763379      -0.04756615       2.35116642
H        11.21541551       0.00081396       2.10309772
H        12.26115884      -0.82744950       0.93264792
H        -0.98494082      -2.23621470      -3.09932988
H        -2.03055440      -3.58384557      -1.32943825
