88
lig_090 free ligand  charge=0 uhf=0  ETKDGv3 + MMFF94s  smiles=CCCCCCCCN(CCCCCCCC)C(=O)COCP(=O)(CCCC)CCCC
C        -6.52172931       4.78971327       3.92292478
C        -6.62759879       3.34285703       4.37944611
C        -5.83461013       2.36730935       3.50725122
C        -4.32113123       2.58295623       3.57825129
C        -3.57196666       1.51696669       2.77397519
C        -2.05842440       1.73607715       2.83781425
C        -1.25792161       0.62938324       2.14695094
C        -1.46874655       0.58581131       0.63123420
N        -0.63852898      -0.44773854       0.00541440
C        -1.18930103      -1.80538204      -0.06931894
C        -1.84822226      -2.12955973      -1.41569095
C        -3.18487076      -1.43749993      -1.68883298
C        -4.32702692      -1.73595537      -0.70982902
C        -4.80488879      -3.19354810      -0.70510288
C        -4.16511299      -4.03638606       0.40236349
C        -4.74950606      -5.44824852       0.49873194
C        -4.44647018      -6.31263870      -0.71545472
C         0.64486249      -0.08665663      -0.40921958
O         1.06045732       1.07063756      -0.30289750
C         1.55101521      -1.19415175      -0.98717239
O         2.80515803      -0.74493435      -1.48835463
C         3.75162689      -0.49766055      -0.44693048
P         5.01309460       0.59342025      -1.10926586
O         6.15217577       0.79026963      -0.14470851
C         5.52841953      -0.09572058      -2.68274780
C         6.02687467      -1.53763913      -2.66821431
C         7.25933823      -1.79586436      -1.80118256
C         8.47604997      -0.98064745      -2.20966016
C         4.15149090       2.12260618      -1.49115323
C         4.93777490       3.18510584      -2.25210649
C         6.11875676       3.74348257      -1.46115497
C         6.77826521       4.90220303      -2.19378522
H        -6.81405461       4.89324769       2.87323215
H        -7.18430767       5.42187675       4.52286277
H        -5.50419890       5.17393882       4.03912072
H        -7.68351246       3.04776506       4.35786523
H        -6.29820135       3.26418570       5.42201550
H        -6.06711770       1.34701378       3.83679530
H        -6.17167132       2.44726868       2.46653467
H        -3.99423888       2.55090806       4.62454508
H        -4.06376371       3.57339152       3.18646510
H        -3.81601430       0.52217866       3.16585752
H        -3.91381408       1.54955672       1.73352776
H        -1.80428639       2.70653055       2.39454578
H        -1.74693377       1.77754825       3.88895036
H        -0.19305801       0.78971950       2.35780869
H        -1.51429128      -0.34076066       2.58978603
H        -1.22217090       1.56259135       0.19946477
H        -2.51432030       0.38708596       0.38845100
H        -0.37440286      -2.51787190       0.08984177
H        -1.88279974      -1.95364034       0.76424802
H        -1.16535386      -1.86347226      -2.23070501
H        -1.98865811      -3.21366346      -1.48855714
H        -3.02752008      -0.35324089      -1.72548468
H        -3.51249348      -1.71894000      -2.69818149
H        -5.17594059      -1.11407864      -1.02404269
H        -4.07628648      -1.40462891       0.30311452
H        -4.63850099      -3.64650490      -1.68826657
H        -5.89020599      -3.19202853      -0.54093447
H        -4.32252136      -3.53700908       1.36648051
H        -3.08316236      -4.10765584       0.25933416
H        -5.83405260      -5.39558978       0.64887162
H        -4.33051670      -5.93690587       1.38655470
H        -4.94413877      -5.93356669      -1.61268174
H        -3.36988620      -6.35614329      -0.90827298
H        -4.80188543      -7.33429610      -0.54683556
H         1.71668971      -1.96764702      -0.22938362
H         1.03105217      -1.64895808      -1.83376617
H         4.19202677      -1.44981455      -0.13612725
H         3.28750959      -0.02203739       0.42244997
H         4.67401385      -0.04099153      -3.36782485
H         6.29618992       0.55599541      -3.11277108
H         5.21969798      -2.19238263      -2.32064384
H         6.24844749      -1.84005078      -3.69918997
H         7.51396438      -2.86018205      -1.87567277
H         7.02858168      -1.61017915      -0.74722563
H         8.71409282      -1.13322510      -3.26705001
H         8.31937577       0.08862521      -2.04047834
H         9.34660260      -1.28443906      -1.61944784
H         3.77701992       2.54645080      -0.55224520
H         3.26900381       1.86817637      -2.08931851
H         4.25288860       4.00438676      -2.50334290
H         5.29690240       2.77030939      -3.20038221
H         5.78334721       4.08537517      -0.47544257
H         6.86935024       2.96327123      -1.30158170
H         6.07252286       5.72573141      -2.34226084
H         7.62636824       5.28231782      -1.61569392
H         7.14932942       4.58589038      -3.17391806
