44
lig_119 free ligand  charge=0 uhf=0  ETKDGv3 + MMFF94s  smiles=CCCCCCOP(=O)(O)OCCCCCC
C         4.49524877       3.10567152      -1.38980204
C         5.28444713       1.80593895      -1.35986596
C         4.49489077       0.59951217      -1.87223784
C         3.30241323       0.23435872      -0.98557544
C         2.61364454      -1.03649000      -1.48080890
C         1.42207457      -1.40741797      -0.60716372
O         0.83185608      -2.58404193      -1.12654720
P        -0.30521399      -3.34458709      -0.28885967
O        -1.16372727      -4.27920230      -1.07389664
O         0.52195255      -4.05651341       0.88526858
O        -1.09502905      -2.20012945       0.51605181
C        -2.29995636      -2.59172146       1.15409218
C        -2.82909354      -1.43536503       1.99527613
C        -3.18806497      -0.21482226       1.14100843
C        -3.75169619       0.91676791       2.00385380
C        -4.02716610       2.19966213       1.21660448
C        -5.12813222       2.05053133       0.17803993
H         5.14071223       3.94314301      -1.10590595
H         4.10350939       3.30487851      -2.39223952
H         3.65657810       3.08240384      -0.68795435
H         5.63591614       1.61596697      -0.33906937
H         6.17737259       1.92681667      -1.98482533
H         4.15000702       0.79343971      -2.89523809
H         5.17723119      -0.25789985      -1.92633145
H         3.64265034       0.08863276       0.04672515
H         2.57613154       1.05478400      -0.97625077
H         3.32434905      -1.87227141      -1.49759761
H         2.27792684      -0.90690198      -2.51736867
H         0.67947837      -0.60275878      -0.61664087
H         1.74529388      -1.57695160       0.42468016
H         1.03891964      -3.43289320       1.41920946
H        -2.10283629      -3.45518173       1.79830233
H        -3.03420136      -2.88172245       0.39517328
H        -2.06612641      -1.14346787       2.72719930
H        -3.71252972      -1.77078789       2.55063646
H        -2.29883060       0.14206874       0.60800961
H        -3.92339367      -0.51213498       0.38499861
H        -4.67298773       0.58297053       2.49665349
H        -3.03464754       1.15151919       2.80033172
H        -3.10795891       2.54195630       0.72714896
H        -4.32028919       2.98453761       1.92409256
H        -4.83489152       1.36487462      -0.62221004
H        -5.34503439       3.02058968      -0.28077471
H        -6.05079695       1.67772608       0.63380771
