96
lig_121 free ligand  charge=0 uhf=0  ETKDGv3 + MMFF94s  smiles=CCCCCCc1ccc(N(CC)C(=O)c2cccc(-c3cccc(C(=O)N(CC)c4ccc(CCCCCC)cc4)n3)n2)cc1
C        -3.25591725       2.39163761      -4.15612124
C        -1.98211616       1.92543537      -3.46855311
C        -2.22856796       1.29264098      -2.09623829
C        -2.80995089       2.27544325      -1.07799689
C        -2.73775609       1.79431500       0.37666416
C        -3.73153808       0.68618193       0.75171710
C        -3.40227116      -0.70092002       0.25820654
C        -4.35904127      -1.45279658      -0.43269218
C        -4.06903068      -2.74862817      -0.88065724
C        -2.82316123      -3.33610286      -0.63200406
N        -2.51688152      -4.65227634      -1.10923166
C        -2.94488106      -5.01844936      -2.46355566
C        -2.04440731      -4.40827782      -3.52917918
C        -1.68189196      -5.57064139      -0.43968486
O        -1.18404697      -6.55893561      -0.98158363
C        -1.51119949      -5.43940117       1.03205209
C        -2.55979440      -5.79390641       1.87034396
C        -2.37840045      -5.63525244       3.23899366
C        -1.17666623      -5.10846901       3.71060401
C        -0.17758015      -4.76982258       2.79676989
C         1.05654116      -4.09203209       3.21052497
C         2.01108936      -4.69987761       4.02263598
C         3.15878318      -3.98648492       4.36364442
C         3.32638584      -2.69198493       3.88153423
C         2.33724371      -2.16006159       3.06369933
C         2.45986114      -0.75161832       2.57455801
O         2.96937342       0.04971477       3.36237086
N         2.01640186      -0.42571865       1.26919816
C         2.04776745      -1.43743367       0.19542067
C         3.43142289      -1.54939918      -0.43527809
C         1.67193066       0.93725363       0.92319326
C         1.59174847       1.37046803      -0.40968160
C         1.22865993       2.68474734      -0.73748409
C         0.93175034       3.61469710       0.25970437
C         0.52977677       5.02450020      -0.08650290
C         1.58473468       5.85255765      -0.83336425
C         2.69986809       6.42909635       0.04822513
C         3.78450071       5.45408572       0.51461403
C         4.54314837       4.71780355      -0.59189815
C         5.26922768       5.64624570      -1.55270977
C         0.97932123       3.19242488       1.58887084
C         1.34368439       1.87746682       1.91119905
N         1.20025744      -2.82451148       2.74596861
N        -0.31595397      -4.96783742       1.46265087
C        -1.86925986      -2.57310402       0.05107614
C        -2.15686774      -1.28221891       0.50698833
H        -3.02805596       2.75306027      -5.16402603
H        -3.72917974       3.21217093      -3.60878453
H        -3.97685535       1.57279893      -4.24468065
H        -1.48927531       1.18468444      -4.10949629
H        -1.28979220       2.76986149      -3.37128898
H        -1.27424232       0.90147924      -1.72571517
H        -2.90013305       0.43770348      -2.22093608
H        -3.84975811       2.51103195      -1.33261568
H        -2.25133496       3.21751267      -1.14173210
H        -2.97072182       2.66076196       1.00993421
H        -1.71046343       1.50914110       0.62505642
H        -3.79039591       0.62878323       1.84674305
H        -4.73309604       0.97978305       0.41295082
H        -5.34429971      -1.03621221      -0.63125257
H        -4.85810272      -3.29224439      -1.39022931
H        -2.91912450      -6.10969001      -2.56827693
H        -3.98585983      -4.73264067      -2.63529452
H        -2.36358219      -4.73043408      -4.52514109
H        -2.07786822      -3.31442214      -3.49899282
H        -1.00308720      -4.71546865      -3.38703826
H        -3.49035399      -6.17693102       1.46697688
H        -3.17484338      -5.89212122       3.93205716
H        -1.04085252      -4.92811384       4.77276370
H         1.87366348      -5.71728119       4.37588614
H         3.91728532      -4.43647622       4.99871010
H         4.20466186      -2.10830248       4.13932352
H         1.27980775      -1.22164202      -0.55465770
H         1.79227822      -2.42658750       0.57252684
H         4.17462766      -1.85764136       0.30763017
H         3.76510704      -0.59827883      -0.86007765
H         3.42219591      -2.29574109      -1.23571299
H         1.82255634       0.71354782      -1.24122125
H         1.18130223       2.97048811      -1.78599823
H         0.21528679       5.56364685       0.81593056
H        -0.36808307       4.95757464      -0.71534196
H         2.00139186       5.30146970      -1.68247490
H         1.05694687       6.71207373      -1.26865338
H         2.25108427       6.89938526       0.93229807
H         3.18178397       7.24499023      -0.50468992
H         4.50973518       6.01927498       1.11452428
H         3.35310555       4.71698296       1.19776454
H         5.28231226       4.05856361      -0.12060556
H         3.86831423       4.06729433      -1.15637708
H         4.56626210       6.24518128      -2.13910715
H         5.87261292       5.06226831      -2.25514061
H         5.93849528       6.32446548      -1.01411775
H         0.73737052       3.87989956       2.39631985
H         1.33690431       1.61033906       2.96425216
H        -0.85829337      -2.93875711       0.20571576
H        -1.38373391      -0.73778594       1.04651788
