113
lig_099 free ligand  charge=0 uhf=0  ETKDGv3 + MMFF94s  smiles=CCCCCCCCN(CCCCCCCC)C(=S)c1ccc(C(=S)N(CCCCCCCC)CCCCCCCC)s1
C        -5.83793452      -1.25803640       6.70126109
C        -4.72709704      -0.35164662       6.19340923
C        -5.24676134       0.62999149       5.14254620
C        -4.17989246       1.60609742       4.64590557
C        -2.97630396       0.99442919       3.92006895
C        -3.30539201       0.32059742       2.58196117
C        -3.49910300      -1.19311721       2.69194361
C        -3.84094963      -1.87477845       1.35638951
N        -2.80038445      -1.77518217       0.31642184
C        -3.21086777      -1.14673553      -0.95444245
C        -3.37791809       0.37008722      -0.87162488
C        -3.61966327       0.97757123      -2.25545725
C        -3.78470983       2.49609743      -2.17048410
C        -3.90589684       3.17349266      -3.53877052
C        -5.08170496       2.71736744      -4.40792596
C        -6.44553571       2.94735806      -3.75651358
C        -7.58003219       2.58682533      -4.70346823
C        -1.56062893      -2.43721423       0.42558187
S        -1.18412398      -3.65598941       1.52832342
C        -0.48521836      -2.07132798      -0.48054323
C         0.10294424      -2.81305130      -1.48863710
C         1.13284251      -2.09116788      -2.16118381
C         1.32304305      -0.83003234      -1.62796138
C         2.25270820       0.20844617      -2.03770901
S         1.83957054       0.98229415      -3.47998743
N         3.38583322       0.48186204      -1.24041635
C         4.26184125       1.64399389      -1.49585458
C         4.33282410       2.67705888      -0.36047257
C         3.18841625       3.69672287      -0.33142110
C         1.82208998       3.19319270       0.13603978
C         1.77680994       2.52901788       1.51492748
C         2.20588687       3.45398836       2.65550926
C         2.17878099       2.77261907       4.02675401
C         0.78725120       2.35321000       4.47498486
C         3.83243441      -0.45430810      -0.18486974
C         5.08049149      -1.26688182      -0.55711253
C         4.86275954      -2.18865307      -1.75831800
C         6.11898410      -3.00734063      -2.06653614
C         5.89373166      -3.93295421      -3.26422263
C         7.15158919      -4.69587228      -3.68901905
C         7.63460679      -5.70170105      -2.64342411
C         8.81426741      -6.51263558      -3.15806452
S         0.24102608      -0.52634201      -0.33321807
H        -6.64143496      -0.67457576       7.16196121
H        -5.44756363      -1.95094504       7.45320428
H        -6.26565846      -1.84842228       5.88460865
H        -4.30018468       0.20111718       7.03825408
H        -3.92880010      -0.97512495       5.77838784
H        -6.06206287       1.21779570       5.58376860
H        -5.68794827       0.09013574       4.29812907
H        -4.66013901       2.33388610       3.97958519
H        -3.80647444       2.18140547       5.50275870
H        -2.29059120       1.82501091       3.70601498
H        -2.42386730       0.31509741       4.57819899
H        -2.45971261       0.50518740       1.90987166
H        -4.18621782       0.78785075       2.12867755
H        -4.31492439      -1.41330348       3.38652461
H        -2.59853996      -1.63062386       3.13246254
H        -4.77405772      -1.44814974       0.96953375
H        -4.04158329      -2.93758330       1.53366394
H        -2.50328161      -1.39761164      -1.74982775
H        -4.15921785      -1.61121521      -1.25353029
H        -2.48788851       0.82629769      -0.42702308
H        -4.22257280       0.61485046      -0.21869508
H        -2.77634788       0.73748605      -2.91426424
H        -4.51610058       0.52423492      -2.69302494
H        -2.91269592       2.92299430      -1.65878809
H        -4.65402878       2.74201600      -1.54995277
H        -3.98049436       4.25695928      -3.38252558
H        -2.97720602       3.00766736      -4.09913051
H        -4.96776802       1.65918189      -4.66989381
H        -5.03834827       3.27272197      -5.35349220
H        -6.54483250       3.99784420      -3.45998592
H        -6.54166511       2.34081264      -2.84965327
H        -7.54459783       3.19931291      -5.61006629
H        -8.54652845       2.75484361      -4.21807821
H        -7.52563998       1.53367063      -4.99720885
H        -0.20148730      -3.82214028      -1.74136494
H         1.70896460      -2.47900550      -2.99329655
H         5.26766057       1.25021906      -1.67658982
H         3.99043262       2.16306446      -2.41720719
H         4.45787943       2.20724729       0.61828007
H         5.25262373       3.25497930      -0.52526812
H         3.49237828       4.52952125       0.31470851
H         3.07305863       4.13223684      -1.33211975
H         1.12948092       4.04487242       0.13781901
H         1.42191011       2.49415218      -0.60188526
H         0.74489469       2.20047564       1.68462667
H         2.39249996       1.62488369       1.52032544
H         3.22884442       3.80556537       2.48074366
H         1.56245104       4.34183648       2.67345017
H         2.58724892       3.47037559       4.76758837
H         2.83810875       1.89677493       4.01997466
H         0.38854356       1.55109140       3.84711364
H         0.82078353       1.97974307       5.50355453
H         0.09186694       3.19782126       4.44379112
H         3.04459397      -1.15954608       0.08453358
H         4.03922239       0.12141729       0.72117195
H         5.36068219      -1.87520137       0.31218597
H         5.92848695      -0.60134352      -0.75088096
H         4.59321849      -1.59737830      -2.64068354
H         4.02904030      -2.86915360      -1.55041769
H         6.38900158      -3.59527187      -1.18234444
H         6.95570502      -2.33032809      -2.27659817
H         5.09090253      -4.64482540      -3.03671447
H         5.55232949      -3.33548375      -4.11879045
H         6.92858698      -5.22886836      -4.62177087
H         7.95415063      -3.98394845      -3.91731101
H         6.81894180      -6.38364501      -2.37700072
H         7.93965743      -5.18352115      -1.72816710
H         9.14721643      -7.22319763      -2.39503825
H         9.65823249      -5.86174630      -3.40791322
H         8.54024842      -7.07985080      -4.05333912
