77
lig_059 free ligand  charge=0 uhf=0  ETKDGv3 + MMFF94s  smiles=CCCCCCCCN(CC)C(=O)COCC(=O)N(CC)CCCCCCCC
C        10.63108218      -0.15845341      -1.72866948
C         9.68499671       0.61099571      -2.63953458
C         8.59213809       1.36304707      -1.87458244
C         7.23995397       0.64225498      -1.80823718
C         7.27348867      -0.68212419      -1.04504203
C         5.89837799      -1.34713151      -0.92047587
C         4.93508449      -0.58927345      -0.00505985
C         3.62343726      -1.35811525       0.17419382
N         2.69199304      -0.63694822       1.04363274
C         2.76749173      -0.91195664       2.47950427
C         1.93481870      -2.12387064       2.86886971
C         1.80219132       0.26184776       0.45391242
O         1.80502956       0.47426412      -0.76159971
C         0.80850174       0.99230589       1.38321920
O        -0.22315839       1.73791987       0.74582668
C        -1.21051063       0.90791519       0.14498274
C        -2.16314803       0.24571632       1.15329092
O        -1.95146854      -0.91525872       1.51697832
N        -3.23720930       0.99157442       1.63678493
C        -3.36360540       2.44161057       1.45298874
C        -4.39614095       2.81542808       0.40397480
C        -4.19261855       0.33837373       2.53552435
C        -5.00062316      -0.80602736       1.90702216
C        -5.90035232      -0.35580045       0.75533407
C        -6.72980018      -1.52093737       0.20956754
C        -7.72658025      -1.09878883      -0.87494818
C        -7.05259662      -0.57619904      -2.14660253
C        -8.03274504      -0.35926949      -3.30240248
C        -9.05591058       0.73304048      -3.03194658
H        10.11086753      -0.92421478      -1.14871628
H        11.40353771      -0.65557066      -2.32422514
H        11.13194769       0.51733528      -1.02774638
H        10.28610206       1.34293896      -3.19329236
H         9.24827327      -0.06280045      -3.38508046
H         8.93026038       1.61936465      -0.86346219
H         8.41855580       2.31666899      -2.39010043
H         6.87069435       0.46792514      -2.82637363
H         6.52933558       1.32646078      -1.33156088
H         7.92781680      -1.38401471      -1.57369630
H         7.70123611      -0.52972616      -0.04710245
H         5.45281974      -1.46269395      -1.91598600
H         6.04512254      -2.35844566      -0.52086124
H         4.71726501       0.40141883      -0.41894360
H         5.40532295      -0.42632991       0.97212023
H         3.15595345      -1.51783161      -0.80452113
H         3.81072919      -2.34892698       0.60324728
H         2.42901329      -0.04050239       3.04640042
H         3.81708826      -1.07396463       2.74894110
H         2.29021691      -3.02728889       2.36312792
H         0.88262186      -1.98733152       2.60046283
H         1.99407937      -2.29369506       3.94829831
H         1.39699849       1.71614641       1.95798456
H         0.36618389       0.29115905       2.09568064
H        -0.75237307       0.12285699      -0.46706407
H        -1.79316199       1.52239931      -0.54838310
H        -2.40181414       2.87710266       1.17447884
H        -3.62671223       2.88843214       2.41886428
H        -4.40217017       3.89883689       0.24863002
H        -4.18197636       2.33260071      -0.55456967
H        -5.40134319       2.51955549       0.71661819
H        -3.62094575      -0.05840275       3.38345941
H        -4.88295750       1.08943568       2.93678829
H        -4.33562067      -1.60156238       1.55440982
H        -5.62313290      -1.25050445       2.69376641
H        -6.57149230       0.43805454       1.10275233
H        -5.28005896       0.05695078      -0.04618095
H        -7.29334098      -1.97779217       1.03255603
H        -6.06321266      -2.29719166      -0.18553298
H        -8.34514433      -1.96875191      -1.12760007
H        -8.40039732      -0.33774423      -0.46509303
H        -6.29197261      -1.29616527      -2.47259060
H        -6.53173023       0.36546687      -1.93894457
H        -7.45989609      -0.08659871      -4.19681599
H        -8.55203347      -1.29673657      -3.53290775
H        -9.73238509       0.45627740      -2.21806082
H        -8.56485063       1.67541667      -2.76953420
H        -9.66543711       0.90584362      -3.92476804
