87
lig_012 free ligand  charge=0 uhf=0  ETKDGv3 + MMFF94s  smiles=CC1(C)CCC(C)(C)c2nc(-c3cccc(-c4cccc(-c5cccc(-c6nnc7c(n6)C(C)(C)CCC7(C)C)n5)n4)n3)nnc21
C         8.49381474      -2.57416470      -1.84507734
C         7.96403508      -2.57528177      -0.39635859
C         8.04005166      -4.01707977       0.14861591
C         8.85398697      -1.68639772       0.50023467
C         8.59055203      -0.20209200       0.27248119
C         7.12874531       0.18240710       0.59259168
C         6.87731126       1.59058080       0.01175835
C         6.91204908       0.24087225       2.11890669
C         6.14183797      -0.81972223       0.00695817
N         4.84567680      -0.42521404      -0.03953664
C         3.94876373      -1.30418084      -0.53445319
C         2.52213592      -0.91138976      -0.60913824
C         1.54045604      -1.77644938      -1.09727958
C         0.21592361      -1.35461279      -1.14234283
C        -0.10497691      -0.07670863      -0.70082988
C         0.90494531       0.75712457      -0.22227249
C         0.62827418       2.12785516       0.26649914
C         1.60833898       2.93458767       0.83809619
C         1.26326157       4.20109567       1.29783138
C        -0.05337220       4.63780345       1.17733196
C        -0.99859246       3.79986116       0.58823096
C        -2.42570214       4.17111326       0.41678942
C        -2.86443726       5.48851536       0.30220180
C        -4.22339644       5.74295829       0.14121247
C        -5.11814118       4.67850609       0.08978531
C        -4.63783776       3.37393689       0.19869701
C        -5.52961345       2.19325955       0.13255328
N        -6.86077885       2.40498002       0.03461693
N        -7.70605175       1.33880544      -0.03921258
C        -7.20282548       0.08354388      -0.02190091
C        -5.83086401      -0.09738542       0.09907494
N        -4.98636521       0.95912811       0.16359802
C        -5.18207173      -1.47551458       0.10856338
C        -4.09468856      -1.55408478       1.20191012
C        -4.50856267      -1.70455887      -1.26062504
C        -6.21471840      -2.58909642       0.39228765
C        -7.49537892      -2.40007048      -0.41355133
C        -8.19532814      -1.06313335      -0.08253965
C        -9.25424132      -0.80436629      -1.17485592
C        -8.91377922      -1.15771295       1.27910383
N        -3.30737424       3.13661606       0.36670749
N        -0.65098348       2.56546309       0.13684325
N         2.20062438       0.34263982      -0.17664680
N         4.29242973      -2.53700671      -0.96808396
N         5.59468162      -2.93121793      -0.90888529
C         6.52668450      -2.08776622      -0.41150828
H         8.41834187      -1.58467951      -2.30922137
H         9.54475588      -2.88271718      -1.88181797
H         7.92670312      -3.26669780      -2.47888007
H         9.07897940      -4.36229966       0.20407642
H         7.49503243      -4.72446216      -0.48730976
H         7.60985970      -4.08440525       1.15498051
H         8.68344682      -1.92213910       1.55835685
H         9.91401879      -1.90056798       0.31307140
H         9.28074046       0.38803699       0.88890841
H         8.82991342       0.04870972      -0.76871673
H         5.88268109       1.97054544       0.27321597
H         6.94834877       1.58693962      -1.08242014
H         7.61105923       2.31001983       0.39337389
H         5.90532714       0.59887698       2.36658158
H         7.02325697      -0.74313852       2.58741355
H         7.62759476       0.92163242       2.59383283
H         1.79633860      -2.77467713      -1.44144650
H        -0.56183273      -2.01366851      -1.51705589
H        -1.13737060       0.26596749      -0.72579645
H         2.62989383       2.57687410       0.93446269
H         2.01509675       4.83680185       1.75663857
H        -0.32353938       5.61492007       1.56174398
H        -2.16817346       6.31989791       0.31622729
H        -4.58341709       6.76384513       0.04648753
H        -6.17878365       4.87288569      -0.04357166
H        -3.27749467      -0.84630922       1.01935524
H        -3.65292760      -2.55635601       1.24569688
H        -4.50940131      -1.32625846       2.19102548
H        -5.21936768      -1.60935430      -2.08873794
H        -4.05817160      -2.70201676      -1.31756031
H        -3.71024558      -0.97435372      -1.44111660
H        -5.78352901      -3.57217777       0.16382411
H        -6.46401178      -2.61247594       1.46073548
H        -8.17395308      -3.24076335      -0.22032496
H        -7.25549261      -2.44878755      -1.48332351
H        -8.78590178      -0.66056503      -2.15584558
H        -9.95009051      -1.64751051      -1.25565271
H        -9.85028091       0.09107716      -0.96331503
H        -9.48748105      -0.24765264       1.49260730
H        -9.61559858      -1.99921240       1.29803105
H        -8.20882307      -1.29022999       2.10716286
