43
lig_163 free ligand  charge=0 uhf=0  ETKDGv3 + MMFF94s  smiles=O=C(COCC(=O)N1CCCCC1)N1CCCCC1
O        -2.71262916      -3.28572248       0.46028786
C        -2.34191707      -2.11884663       0.30012483
C        -0.84688519      -1.77685370       0.36483317
O        -0.55807989      -0.80102893       1.35992938
C         0.82813135      -0.50843354       1.45189737
C         1.43301530       0.33074867       0.30638982
O         0.71820764       0.83055924      -0.56509772
N         2.81842992       0.47972688       0.29782252
C         3.43822249       1.19469535      -0.81849007
C         4.82446840       0.64605854      -1.13371519
C         5.76292116       0.72224217       0.07105982
C         5.02173625       0.73957214       1.40741476
C         3.70717980      -0.02931024       1.34458725
N        -3.23552302      -1.08917994       0.02333231
C        -4.66796167      -1.37470136       0.03454257
C        -5.46955779      -0.18587867       0.55080245
C        -5.23180335       1.07572864      -0.28018728
C        -3.89345670       1.06386002      -1.01783460
C        -2.82465201       0.28939784      -0.25457805
H        -0.30994044      -2.70215518       0.60666935
H        -0.52284218      -1.44758174      -0.62741825
H         1.39121820      -1.44163736       1.56538914
H         0.95576418       0.07380723       2.37078435
H         2.80418327       1.12893143      -1.70916126
H         3.49650570       2.25268536      -0.53631846
H         4.72915698      -0.40342307      -1.44127438
H         5.26440078       1.18273773      -1.98162859
H         6.38710256       1.62129659       0.00160757
H         6.45151047      -0.13072615       0.03727721
H         4.81112250       1.78142137       1.68183049
H         5.66540846       0.33207065       2.19490446
H         3.89249778      -1.08739878       1.12544668
H         3.20721780       0.02476365       2.31577917
H        -4.87531678      -2.25561141       0.65141667
H        -4.96037018      -1.61987545      -0.99340628
H        -6.53896642      -0.42386158       0.56696491
H        -5.17665212       0.01530527       1.58947454
H        -5.28594209       1.94957080       0.38036951
H        -6.03826191       1.19697792      -1.01341691
H        -4.03562441       0.59788541      -2.00159555
H        -3.56132418       2.09145232      -1.20295615
H        -2.62181575       0.77249362       0.70804145
H        -1.89887871       0.28823733      -0.83452549
