137
lig_045 free ligand  charge=0 uhf=0  ETKDGv3 + MMFF94s  smiles=CCCCCCCCCCN(CCCCCCCCCC)C(=O)COCC(=O)N(CCCCCCCCCC)CCCCCCCCCC
C         8.36704066       6.67907391      -2.93864951
C         9.09369295       5.35113940      -3.06253318
C         9.15527421       4.53907493      -1.76539606
C         7.79187419       4.07493947      -1.23937550
C         7.23242783       4.99128334      -0.14594308
C         5.80543026       4.62603424       0.27760146
C         5.70312120       3.24682826       0.93299135
C         4.31877886       2.95608663       1.52013588
C         3.15394415       2.97644157       0.52905126
C         3.27886550       2.05493119      -0.68874793
N         3.31949465       0.61470582      -0.40399161
C         4.58043107      -0.09810605      -0.65741822
C         5.26584101      -0.59697009       0.61788476
C         6.61910522      -1.26484742       0.35328448
C         6.58106439      -2.51151446      -0.53586672
C         5.66062615      -3.63940384      -0.05856235
C         5.91418597      -4.15435394       1.36279694
C         7.29942568      -4.77367803       1.54720407
C         7.59872975      -5.22583931       2.98183622
C         6.69956163      -6.35066393       3.50262691
C         5.54978255      -5.84706549       4.36361258
C         2.20343670      -0.17199470      -0.09379979
O         2.29409354      -1.39703020       0.02003869
C         0.84281071       0.53295035       0.09643721
O        -0.31190965      -0.28859491       0.20610737
C        -0.66012228      -0.92160858      -1.01800135
C        -1.97463246      -1.71159562      -0.92959525
O        -1.96902129      -2.92405691      -1.16652097
N        -3.15863293      -1.02164440      -0.64635081
C        -4.40248111      -1.80096510      -0.59516050
C        -5.33988763      -1.55732502      -1.78342179
C        -4.72556744      -1.97635441      -3.12217562
C        -5.64346547      -1.71021802      -4.32054267
C        -6.91693548      -2.55995801      -4.30925331
C        -7.71604248      -2.47514094      -5.61504933
C        -8.30972149      -1.08759182      -5.87262144
C        -9.10850249      -1.00154980      -7.17743356
C       -10.39403886      -1.82960757      -7.16159730
C       -11.20695123      -1.61475000      -8.42940705
C        -3.24556182       0.43444989      -0.46567347
C        -3.82863263       0.88205131       0.88027121
C        -2.98684588       0.43252543       2.07650931
C        -3.53396893       0.92408267       3.42121090
C        -4.88186781       0.29774164       3.78914072
C        -5.31756157       0.59486224       5.22877275
C        -5.62196562       2.07481530       5.47597272
C        -6.05732905       2.37314521       6.91452541
C        -7.41436111       1.76963143       7.27890437
C        -7.85355147       2.19476396       8.67199567
H         8.47064202       7.25115642      -3.86641270
H         8.77992070       7.28065243      -2.12300427
H         7.29751103       6.53266839      -2.76223510
H         8.62074875       4.75306910      -3.85051093
H        10.12086240       5.54705887      -3.39346916
H         9.69965082       5.09843375      -0.99528995
H         9.75596916       3.64500144      -1.97735612
H         7.07543068       3.97495007      -2.06301155
H         7.92372869       3.07266927      -0.81412530
H         7.22509156       6.02946314      -0.49268443
H         7.89269557       4.96130902       0.72960134
H         5.14963314       4.67888023      -0.59883676
H         5.45247136       5.38637706       0.98511402
H         5.96935011       2.46755577       0.21334749
H         6.43714164       3.18115589       1.74576697
H         4.33928717       1.98650964       2.02806364
H         4.11081706       3.69436717       2.30543885
H         2.24062299       2.74737236       1.08508646
H         3.02080800       4.00225746       0.16364186
H         4.15574740       2.33444289      -1.28225135
H         2.42210774       2.23610044      -1.34638990
H         5.26212953       0.55044229      -1.21807036
H         4.34963219      -0.94630027      -1.31241641
H         5.44097682       0.24657078       1.29126309
H         4.61061483      -1.28145994       1.16651545
H         7.29002287      -0.53100419      -0.11131682
H         7.07672912      -1.52003881       1.31652063
H         7.60321353      -2.89502834      -0.63803005
H         6.27817009      -2.22436054      -1.55004428
H         4.61812989      -3.30637755      -0.12551633
H         5.75227162      -4.47819024      -0.76024795
H         5.15113650      -4.91261473       1.57146492
H         5.76409478      -3.34872261       2.08965796
H         7.41260947      -5.62585441       0.86587062
H         8.06969587      -4.04584672       1.26861231
H         8.63323821      -5.59325259       2.98964305
H         7.57556742      -4.36354192       3.65884960
H         6.31387452      -6.95811285       2.67630139
H         7.30702896      -7.01912347       4.12540702
H         5.92620055      -5.30211084       5.23549703
H         4.95592389      -6.69167690       4.72756433
H         4.88246844      -5.18240611       3.81018708
H         0.90481273       1.07620428       1.04325426
H         0.67301482       1.26314347      -0.69909373
H         0.12587230      -1.62824179      -1.30496883
H        -0.75941257      -0.18411469      -1.82322167
H        -4.18105665      -2.87244368      -0.53556527
H        -4.92083192      -1.55828870       0.33775020
H        -6.25661973      -2.13043091      -1.60426760
H        -5.63331893      -0.50254480      -1.82595781
H        -4.45924477      -3.03975330      -3.09164909
H        -3.79467439      -1.42095125      -3.28645170
H        -5.07841755      -1.92330446      -5.23631885
H        -5.89876125      -0.64486626      -4.34474608
H        -7.56291619      -2.26363247      -3.47514699
H        -6.64502166      -3.60983945      -4.14423743
H        -8.52245617      -3.21465953      -5.55717432
H        -7.07719308      -2.76789573      -6.45694832
H        -7.50203668      -0.34931758      -5.93067764
H        -8.94796429      -0.79421177      -5.03048568
H        -9.36538985       0.05117078      -7.35008214
H        -8.47606247      -1.31314667      -8.01765681
H       -11.00396786      -1.55516949      -6.29327383
H       -10.16082052      -2.89580757      -7.07347770
H       -12.11988808      -2.21782302      -8.40081917
H       -11.49726949      -0.56472445      -8.53664156
H       -10.63471788      -1.90592743      -9.31604302
H        -3.87702678       0.82088364      -1.27353532
H        -2.27505034       0.91227201      -0.60619628
H        -4.85653717       0.52002287       0.97747320
H        -3.88951293       1.97758619       0.87932693
H        -2.90416013      -0.66030002       2.09585119
H        -1.97082324       0.82788658       1.96303773
H        -3.61666691       2.01641058       3.39667485
H        -2.80009491       0.67728570       4.19828456
H        -5.66141890       0.64380516       3.10120041
H        -4.81449006      -0.79092330       3.67175083
H        -4.54249784       0.25364439       5.92552952
H        -6.21260808      -0.00327303       5.43289014
H        -4.72586137       2.67152034       5.27173254
H        -6.39647954       2.41646892       4.77882042
H        -6.10834000       3.46255514       7.03537006
H        -5.29147206       2.01444829       7.61298725
H        -7.36740195       0.67615252       7.24668290
H        -8.17089041       2.08627186       6.55177339
H        -7.13114738       1.86901427       9.42722954
H        -8.82368003       1.75031742       8.91547868
H        -7.95294557       3.28295648       8.73751898
