124
lig_070 free ligand  charge=0 uhf=0  ETKDGv3 + MMFF94s  smiles=CCCCCCCCN(CCCCCCCC)C(=O)CN(CC(=O)N(CCCCCCCC)CCCCCCCC)c1ccccc1
C         8.05322207       4.34889732       0.06322713
C         7.32444682       3.01957741      -0.06142244
C         7.23304562       2.56882620      -1.51983508
C         6.41132839       1.28951411      -1.70929914
C         7.04371194       0.06208355      -1.05338293
C         6.37880947      -1.26537317      -1.43645889
C         4.93115580      -1.41573959      -0.95705640
C         3.90206508      -1.06425814      -2.03741954
N         2.51892964      -1.16762731      -1.56358844
C         1.74147826      -2.33690926      -1.98386374
C         2.18534005      -3.64957874      -1.33042365
C         1.91482816      -3.67769895       0.17729772
C         2.30085438      -5.00713769       0.83518652
C         3.80355259      -5.30750098       0.87634537
C         4.57579057      -4.38589038       1.82518883
C         6.08939797      -4.61230920       1.78817133
C         6.51295094      -5.98358739       2.29069106
C         2.01798532      -0.10665699      -0.80721147
O         2.74510997       0.83251683      -0.45825429
C         0.54520164      -0.12437151      -0.35681808
N        -0.44062628       0.06801711      -1.44491693
C        -1.71890923      -0.67013142      -1.36876649
C        -2.23880960      -0.85534919       0.06970575
O        -2.08392251      -1.94262910       0.63692348
N        -2.87380041       0.21651130       0.69868957
C        -3.06530190       1.53201059       0.08129658
C        -4.38836925       1.64316999      -0.67872327
C        -4.36818287       2.74008316      -1.74840870
C        -4.12407452       4.13860569      -1.17640509
C        -4.20405361       5.24692324      -2.23259404
C        -3.06161866       5.18965105      -3.25124319
C        -3.12419193       6.30544731      -4.29712240
C        -2.88472793       7.69282644      -3.72208399
C        -3.42090907       0.00582481       2.03978595
C        -4.80948681      -0.63607748       2.00839886
C        -5.33645764      -0.88584972       3.42326520
C        -6.72487517      -1.52861249       3.39102541
C        -7.35479248      -1.69342243       4.77813870
C        -6.62235174      -2.70758175       5.66082456
C        -7.25892083      -2.87714856       7.04304009
C        -8.64067179      -3.51154375       7.00437656
C        -0.27568741       1.02466654      -2.43735562
C         0.40129243       2.23093185      -2.20564912
C         0.54643806       3.20011782      -3.20521685
C         0.01329947       2.98383755      -4.47001605
C        -0.66006126       1.79725652      -4.73254569
C        -0.79904395       0.83347701      -3.72714994
H         7.53070411       5.13651280      -0.48901414
H         8.11121215       4.65215635       1.11328717
H         9.07365428       4.27456076      -0.32605865
H         6.31829706       3.12047307       0.36155556
H         7.85646665       2.27135615       0.53574677
H         6.76618726       3.36538682      -2.11259864
H         8.24098208       2.42289606      -1.92701767
H         6.30441529       1.10867456      -2.78570342
H         5.40607084       1.45294965      -1.30659858
H         8.10053188       0.00579491      -1.34273009
H         7.02218727       0.16757462       0.03751323
H         6.45010626      -1.42590126      -2.51868499
H         6.97019704      -2.06368562      -0.96910270
H         4.76570591      -0.83090988      -0.04529426
H         4.78238229      -2.46181906      -0.67083185
H         4.05713694      -0.04125915      -2.39406533
H         4.02859731      -1.71969381      -2.90709521
H         0.68042857      -2.19731559      -1.78687480
H         1.84166085      -2.41721479      -3.07288460
H         1.63134711      -4.47058265      -1.80251109
H         3.24284448      -3.83029280      -1.54078602
H         2.42414170      -2.84654424       0.67454631
H         0.84071447      -3.52295400       0.34038954
H         1.79572482      -5.82351249       0.30401360
H         1.90907140      -5.01774010       1.85992654
H         3.92276943      -6.34443855       1.21220715
H         4.23185511      -5.25719942      -0.13011156
H         4.39103209      -3.33901778       1.56417866
H         4.20871099      -4.52274721       2.84964766
H         6.56916570      -3.84933338       2.41288417
H         6.46298299      -4.46570603       0.76795135
H         6.12360139      -6.17144361       3.29622705
H         7.60509303      -6.04673336       2.33310986
H         6.16172732      -6.77994714       1.62813152
H         0.38260027      -1.07435094       0.16210010
H         0.40787690       0.66426659       0.39337239
H        -1.58303719      -1.66666232      -1.80516009
H        -2.51406714      -0.18737249      -1.94745880
H        -2.23371293       1.73364086      -0.59274503
H        -3.00794272       2.29628633       0.86481389
H        -4.62187103       0.69152680      -1.17144564
H        -5.20396830       1.83324872       0.02854805
H        -5.32942505       2.72770717      -2.27637231
H        -3.59830619       2.49241761      -2.48746878
H        -3.14563591       4.18484755      -0.68467396
H        -4.87700282       4.34231011      -0.40504575
H        -5.16876960       5.19471885      -2.75126402
H        -4.17765529       6.20786496      -1.70666864
H        -2.09784790       5.22924687      -2.72963755
H        -3.09467865       4.23411022      -3.78598603
H        -2.35859824       6.10937394      -5.05753378
H        -4.09277805       6.28369686      -4.80986078
H        -3.69029308       7.99259114      -3.04576138
H        -1.93815932       7.73328924      -3.17397724
H        -2.83992834       8.43074598      -4.52959526
H        -2.73458516      -0.64285659       2.59754078
H        -3.44920841       0.96449564       2.56986006
H        -5.50816547       0.01134110       1.46765452
H        -4.77062476      -1.58382294       1.45775354
H        -4.63329631      -1.53505246       3.95635284
H        -5.38304258       0.06371380       3.96982549
H        -6.67096346      -2.50427191       2.89285925
H        -7.39312364      -0.90247784       2.78659565
H        -8.39205337      -2.01603114       4.63379654
H        -7.39248302      -0.72057318       5.28290442
H        -5.58673420      -2.38298825       5.81116981
H        -6.58046194      -3.67904560       5.15369300
H        -6.60321684      -3.51309361       7.64992241
H        -7.31608697      -1.90680437       7.54979375
H        -9.36996430      -2.85801709       6.51727812
H        -8.99520746      -3.70010611       8.02289623
H        -8.61998705      -4.46711259       6.47102793
H         0.81840401       2.45332025      -1.22642744
H         1.07833027       4.12227743      -2.98646506
H         0.12679371       3.73438011      -5.24700067
H        -1.07204692       1.61237123      -5.72077428
H        -1.30716942      -0.09328195      -3.98013601
