78
lig_080 free ligand  charge=0 uhf=0  ETKDGv3 + MMFF94s  smiles=CCCCCCCCN(CCCCCCCC)C(=O)COCC(=O)N1CCCCC1
C        -3.12260723       6.38497037       2.35301509
C        -3.83819854       7.04499384       1.18374803
C        -4.81995223       6.11733460       0.46156343
C        -4.25173213       5.41688448      -0.77807434
C        -3.10047081       4.43597143      -0.54704045
C        -3.49124527       3.23530848       0.31825001
C        -2.32329788       2.28449800       0.59601942
C        -1.80611405       1.57168184      -0.65577267
N        -0.77482711       0.58516686      -0.32084950
C        -1.22152626      -0.78543666      -0.05460676
C        -1.34455788      -1.59914379      -1.34572014
C        -1.86005283      -3.02373897      -1.11885240
C        -0.84641396      -3.92737858      -0.41573530
C        -1.36781838      -5.33734317      -0.11176464
C        -1.70786290      -6.17593739      -1.34860073
C        -3.20379556      -6.18122799      -1.67170527
C        -3.50070328      -7.01410227      -2.90923663
C         0.55406570       1.01467392      -0.27691903
O         0.85774658       2.19027063      -0.48746200
C         1.62878380      -0.04112910       0.07100222
O         2.99821212       0.30068384      -0.07257876
C         3.44203384       1.26420956       0.87787934
C         4.97223939       1.38674785       0.89440926
O         5.50769180       2.46330862       0.61513050
N         5.71638993       0.27285214       1.27042480
C         7.17400506       0.33125843       1.21067219
C         7.70435048      -0.71040061       0.22612965
C         7.16665649      -2.10603979       0.54920008
C         5.64083861      -2.10062673       0.66563388
C         5.17130927      -1.02875105       1.64645150
H        -2.47358978       5.56846445       2.03025658
H        -3.84069580       5.98656098       3.07697219
H        -2.49725249       7.11936665       2.87106942
H        -3.10681647       7.46158872       0.48218021
H        -4.40403461       7.89476391       1.58592796
H        -5.25660178       5.39122564       1.15582311
H        -5.65825533       6.73509536       0.11249822
H        -5.07144754       4.88323271      -1.27593700
H        -3.91402476       6.18240887      -1.48830763
H        -2.24118442       4.95761818      -0.11337419
H        -2.77426813       4.07921206      -1.53107957
H        -3.87200243       3.58232873       1.28478909
H        -4.30818091       2.68360162      -0.16237430
H        -1.50583957       2.83472153       1.07816517
H        -2.65787395       1.53560706       1.32480593
H        -1.38314776       2.29911121      -1.35648688
H        -2.62512450       1.06329268      -1.17656391
H        -0.52334252      -1.26417075       0.63462555
H        -2.18780664      -0.73809061       0.46082873
H        -2.03944962      -1.08975958      -2.02488878
H        -0.38132238      -1.63222053      -1.86833562
H        -2.79566305      -2.99179210      -0.54825406
H        -2.09485283      -3.44630861      -2.10212914
H        -0.54668724      -3.47780627       0.53727896
H         0.06261017      -3.99995890      -1.02554747
H        -0.57336197      -5.85832451       0.43838962
H        -2.22511396      -5.28126371       0.56955152
H        -1.40249863      -7.21217759      -1.15365773
H        -1.12723843      -5.83897174      -2.21535450
H        -3.57141319      -5.16365430      -1.83287631
H        -3.76258490      -6.59254279      -0.82275440
H        -4.57515188      -7.01305910      -3.11783275
H        -3.18305070      -8.05232285      -2.76956048
H        -2.98402641      -6.61087534      -3.78604163
H         1.45575976      -0.38500117       1.09749670
H         1.47204552      -0.89759735      -0.59172849
H         3.10799461       1.00693652       1.88978519
H         3.03861951       2.24857502       0.62221241
H         7.55447787       0.13264113       2.21963694
H         7.52619792       1.32510925       0.91817594
H         7.39871353      -0.43689617      -0.79156591
H         8.79959643      -0.71920203       0.24524889
H         7.60202499      -2.45300429       1.49440395
H         7.47798699      -2.81362129      -0.22717281
H         5.20512750      -1.90859307      -0.32272011
H         5.28923580      -3.08562671       0.99135914
H         4.08254217      -1.02357524       1.70314875
H         5.53782506      -1.25460450       2.65530270
