50
lig_166 free ligand  charge=0 uhf=0  ETKDGv3 + MMFF94s  smiles=O=C(c1cc(Cl)c2ccc3c(Cl)cc(C(=O)N4CCCC4)nc3c2n1)N1CCCC1
O         4.44120811       0.85010137      -0.64635000
C         3.30730070       0.41869457      -0.86623386
C         2.85407543      -0.78080642      -0.09114768
C         3.80238837      -1.67336062       0.35568201
C         3.35689661      -2.77527927       1.06887919
Cl        4.56651128      -3.89788431       1.60109626
C         1.98269697      -2.96800725       1.34264486
C         1.47903431      -4.07408261       2.05022627
C         0.11661250      -4.20536957       2.28629040
C        -0.78857031      -3.22819765       1.83514183
C        -2.18571164      -3.30188728       2.04270172
Cl       -2.92246671      -4.63267149       2.87508902
C        -3.03563094      -2.30541970       1.58879657
C        -2.46630422      -1.23161707       0.94194262
C        -3.36132133      -0.13881973       0.44221383
O        -4.52121093      -0.43563200       0.14765519
N        -2.90017423       1.16707993       0.36242920
C        -1.60453486       1.69178963       0.77709895
C        -1.64569935       3.16765453       0.39958089
C        -3.12842266       3.50292615       0.46462529
C        -3.78203857       2.23750755      -0.06779196
N        -1.13745582      -1.13798521       0.70966964
C        -0.29407227      -2.10729000       1.13472630
C         1.08307030      -1.98692598       0.87392431
N         1.53475399      -0.92389932       0.16860541
N         2.48510111       0.98639726      -1.82857441
C         1.17696517       0.52734918      -2.28024688
C         0.73319305       1.56740743      -3.30188046
C         2.04846393       2.10128445      -3.84974295
C         2.94328962       2.11402320      -2.62048049
H         4.85553311      -1.51728098       0.14583321
H         2.14045996      -4.85360660       2.42517199
H        -0.22545494      -5.08278230       2.83296969
H        -4.10875920      -2.35778010       1.74099699
H        -0.78457919       1.18614416       0.26866708
H        -1.50828139       1.55058525       1.85873399
H        -1.28172205       3.30102067      -0.62650005
H        -1.03517190       3.78827434       1.06105606
H        -3.42476736       3.66983345       1.50722185
H        -3.39299403       4.39111596      -0.11535357
H        -4.80010992       2.09805146       0.30778479
H        -3.80352223       2.22957475      -1.16326343
H         1.29901952      -0.46218300      -2.73308731
H         0.46588938       0.46687234      -1.45731596
H         0.18745977       2.37538507      -2.79942728
H         0.08425295       1.14737710      -4.07512900
H         2.44696961       1.40606310      -4.59844255
H         1.95167456       3.08731512      -4.31194191
H         2.79118520       3.02118379      -2.02507907
H         4.00497054       2.02775666      -2.87021663
