65
lig_018 free ligand  charge=0 uhf=0  ETKDGv3 + MMFF94s  smiles=CC12CCC(c3nnc(-c4cccc(-c5nnc6c(n5)C5(C)CCC6C5(C)C)n4)nc31)C2(C)C
C        -4.18065435      -0.23958517      -1.93452519
C        -4.95810687       0.24333599      -0.73173933
C        -5.52536318       1.68932168      -0.84452791
C        -6.58830725       1.74885401       0.29788027
C        -6.51057095       0.33762279       0.93267279
C        -5.14799602       0.29457200       1.59594230
N        -4.81731196       0.35713106       2.88142392
N        -3.47849911       0.34771431       3.14714096
C        -2.55634230       0.29375691       2.12554753
C        -1.12134510       0.29305943       2.50665478
C        -0.71158249       0.34344180       3.84005807
C         0.64580921       0.34017051       4.14148985
C         1.57226403       0.28664430       3.10630367
C         1.12720884       0.23715822       1.78439214
C         2.07407552       0.17891633       0.64375026
N         1.55400943       0.13315177      -0.62705534
N         2.37565289       0.08316157      -1.71895593
C         3.67696601       0.06582063      -1.45987651
C         4.16826637       0.11204040      -0.16700603
N         3.40753514       0.17752678       0.92664476
C         5.69363857       0.13901293      -0.28626265
C         6.45314761      -0.24142453       0.96387435
C         6.00997745       1.55606449      -0.84962127
C         5.43788562       1.50177943      -2.30150739
C         4.86153260       0.06744844      -2.40529935
C         5.87159267      -0.77085156      -1.55523862
C         5.45833719      -2.25080662      -1.36677967
C         7.29976713      -0.79952402      -2.13781830
N        -0.20468814       0.24059052       1.49727019
N        -2.88159207       0.24522074       0.80819716
C        -4.19567316       0.23997904       0.59404681
C        -6.22674856      -0.57900076      -0.30247544
C        -7.36957487      -0.59658765      -1.33860562
C        -5.95883488      -2.05960300       0.06171242
H        -3.79482995      -1.25325908      -1.78286388
H        -4.80458606      -0.24639717      -2.83388911
H        -3.32021975       0.40968078      -2.13136303
H        -5.99538879       1.87375062      -1.81655591
H        -4.75305039       2.45452468      -0.70070506
H        -7.58276748       1.95076229      -0.11343185
H        -6.35487544       2.54643898       1.01274903
H        -7.34286954       0.05141809       1.57684369
H        -1.43855034       0.38521877       4.64679916
H         0.97887158       0.37903086       5.17499968
H         2.63475362       0.28373338       3.33419847
H         7.53361859      -0.23779233       0.78849030
H         6.17119708      -1.23894624       1.31720485
H         6.24577325       0.46237356       1.77768589
H         7.08556342       1.76235255      -0.86805355
H         5.53060988       2.35387919      -0.26963979
H         4.67579681       2.27477428      -2.45439024
H         6.23406898       1.66946297      -3.03422102
H         4.64571147      -0.29466648      -3.41122039
H         4.46806556      -2.38758405      -0.92254874
H         6.17050406      -2.77134351      -0.71641765
H         5.44853325      -2.76857995      -2.33291376
H         7.74404708       0.18512216      -2.29715741
H         7.30433690      -1.30972843      -3.10800522
H         7.97787785      -1.34497111      -1.47163953
H        -8.27262301      -1.03775657      -0.90103608
H        -7.65167138       0.38733820      -1.71887693
H        -7.09212922      -1.20120897      -2.20958212
H        -6.85252472      -2.50810550       0.51089710
H        -5.70902517      -2.63909806      -0.83432969
H        -5.13869313      -2.20653667       0.77056568
