43
lig_135 free ligand  charge=0 uhf=0  ETKDGv3 + MMFF94s  smiles=CCCCN(CCCC)C(=O)c1ccccc1C(=O)O
C         0.33125933       4.02929810       1.01665935
C        -0.73500595       3.35882414       0.16443695
C        -0.25812135       2.06832288      -0.50465562
C         0.05641833       0.95202988       0.49346921
N         0.45140952      -0.29304342      -0.17573727
C         1.85722977      -0.42837053      -0.55715908
C         2.67582651      -1.09058461       0.55251019
C         4.14306090      -1.23169695       0.15089249
C         4.96094754      -1.88894315       1.25107431
C        -0.41104733      -1.33331663      -0.52152215
O        -0.05808502      -2.37181751      -1.07614942
C        -1.83696808      -1.23079816      -0.17135187
C        -2.21004097      -1.48485095       1.15722392
C        -3.55818993      -1.48273287       1.51497961
C        -4.53470911      -1.25208938       0.54652800
C        -4.16604047      -1.02944447      -0.78312128
C        -2.81181113      -1.02568969      -1.15277776
C        -2.43385786      -0.77720500      -2.56086046
O        -1.45324791      -0.18497019      -2.96496512
O        -3.34341872      -1.28657582      -3.41280449
H         0.59269054       3.41929070       1.88614168
H        -0.03489896       4.99241603       1.38661774
H         1.24060175       4.21318077       0.43586207
H        -1.04706638       4.06062083      -0.61823425
H        -1.61994978       3.15607713       0.77882384
H        -1.04437055       1.73115137      -1.18858728
H         0.62022361       2.27890645      -1.12624276
H        -0.81751011       0.77874007       1.12531767
H         0.87389586       1.24240434       1.16187218
H         1.92859664      -1.02786577      -1.47236901
H         2.25777161       0.56377551      -0.79365656
H         2.25781042      -2.07885553       0.78096894
H         2.60028421      -0.49882311       1.47294458
H         4.22298850      -1.83115908      -0.76339937
H         4.56513034      -0.24442320      -0.07007858
H         6.00713524      -1.98002222       0.94269996
H         4.92828825      -1.29681364       2.17121411
H         4.58391149      -2.89215165       1.47414065
H        -1.44989511      -1.69693090       1.90591325
H        -3.84831222      -1.67643049       2.54516254
H        -5.58680152      -1.25834177       0.82319348
H        -4.94025127      -0.86220617      -1.52918262
H        -2.95588063      -1.10888534      -4.29579179
