56
lig_151 free ligand  charge=0 uhf=0  ETKDGv3 + MMFF94s  smiles=CCOP(=O)(OCC)c1ccc2ccc3ccc(P(=O)(OCC)OCC)nc3c2n1
C        -7.18452468      -1.65512388      -0.62093243
C        -5.99936117      -0.85206706      -1.11577438
O        -5.06972182      -0.71672386      -0.05362914
P        -3.65718662       0.00886877      -0.40644875
O        -3.88131611       1.29390581      -1.15934369
O        -2.97037742      -1.13058051      -1.33390241
C        -1.77887063      -0.78117584      -2.01958884
C        -0.79471957      -1.92717937      -1.91185063
C        -2.74787672       0.07164465       1.13746748
C        -3.43317406       0.21735940       2.33467135
C        -2.70982272       0.25188812       3.52023808
C        -1.31426635       0.14229846       3.49530979
C        -0.58217032       0.16609116       4.68639754
C         0.80072540       0.05265779       4.65316191
C         1.46177680      -0.08168404       3.42835166
C         2.85632131      -0.19866950       3.38641306
C         3.50759744      -0.33018801       2.16673967
C         2.75251905      -0.33780472       1.00278326
P         3.59718980      -0.50288786      -0.56917150
O         4.29677686      -1.80996718      -0.83780409
O         2.59214578      -0.10348930      -1.77761059
C         1.87824035       1.11963758      -1.71527450
C         1.68074561       1.63204849      -3.12732417
O         4.65804034       0.73049194      -0.62321797
C         5.57359473       0.73309841      -1.70699729
C         6.26679433       2.07893174      -1.74938890
N         1.39541803      -0.22726120       1.03467081
C         0.73799055      -0.10309623       2.21458193
C        -0.66250628       0.00633884       2.24882439
N        -1.38778632      -0.01896889       1.10352379
H        -7.92957686      -1.77936297      -1.41170552
H        -7.65599449      -1.15994463       0.23442810
H        -6.86371734      -2.64463888      -0.27879016
H        -6.32803769       0.14075610      -1.43811505
H        -5.52754916      -1.36247082      -1.96105213
H        -2.03216847      -0.59853067      -3.06835693
H        -1.34166045       0.13564721      -1.61385113
H         0.12716338      -1.70209992      -2.45501804
H        -0.54685603      -2.12733985      -0.86446816
H        -1.22773107      -2.84734182      -2.31769154
H        -4.51625328       0.29557763       2.34560785
H        -3.24410537       0.35997667       4.46161969
H        -1.08279598       0.26980557       5.64692452
H         1.35669830       0.06936725       5.58837972
H         3.44471061      -0.19081799       4.30133362
H         4.58859882      -0.42592899       2.12140983
H         2.41994460       1.86258488      -1.12201711
H         0.90565721       0.94131901      -1.25094297
H         1.13979657       0.89685314      -3.73239237
H         1.11911260       2.57034543      -3.12693699
H         2.64691641       1.79828775      -3.61512533
H         6.30764611      -0.06452108      -1.55700181
H         5.04316498       0.55567760      -2.64781634
H         6.79029835       2.27348817      -0.80749809
H         5.53603552       2.88406158      -1.87979722
H         6.98850712       2.12085591      -2.56987165
