60
lig_145 free ligand  charge=0 uhf=0  ETKDGv3 + MMFF94s  smiles=CCN(C(=O)c1cccc(-c2cccc(C(=O)N(CC)c3ccccc3)n2)n1)c1ccccc1
C        -3.97511041       0.15745954       2.63470930
C        -3.84290631       0.65012492       1.19851352
N        -4.58969411      -0.19828935       0.25254277
C        -4.06709057      -1.44225031      -0.17983322
O        -4.74865623      -2.38486353      -0.59103857
C        -2.59640643      -1.69811623      -0.10067649
C        -2.15555205      -2.93253054       0.35790082
C        -0.78905121      -3.17384960       0.37731113
C         0.08239030      -2.18528303      -0.07550343
C        -0.42825656      -0.97244271      -0.54657166
C         0.44982182       0.11184550      -1.04837810
C        -0.05873785       1.24135160      -1.69586313
C         0.81277615       2.22694046      -2.15498146
C         2.17713366       2.07116506      -1.95448633
C         2.61547855       0.93696424      -1.28376090
C         4.08501658       0.72676521      -1.10793858
O         4.78300087       1.01410979      -2.08384354
N         4.58775460       0.27537047       0.13745057
C         3.81507985       0.46030913       1.37887305
C         3.92404154       1.88364777       1.91280758
C         5.93427434      -0.24745943       0.24035858
C         6.58864516      -0.79449392      -0.87539655
C         7.88151850      -1.32490815      -0.78373174
C         8.55114561      -1.32721078       0.43321425
C         7.92487693      -0.80237620       1.55686651
C         6.63083580      -0.27345707       1.46114497
N         1.78507511      -0.04396190      -0.84199084
N        -1.76577299      -0.72628808      -0.56170063
C        -5.93312764       0.20093411      -0.11195864
C        -6.56073468      -0.31929993      -1.25555740
C        -7.85024378       0.07655193      -1.63202537
C        -8.54327581       1.01172633      -0.87405709
C        -7.94371041       1.55190654       0.25686649
C        -6.65294278       1.15387820       0.62962673
H        -3.42590216       0.81825962       3.31256223
H        -5.01970636       0.12866951       2.95847800
H        -3.56819586      -0.85303584       2.74371281
H        -2.78243783       0.67113857       0.94976111
H        -4.15963585       1.69461278       1.10814084
H        -2.86249855      -3.68976021       0.68232391
H        -0.40247284      -4.12681740       0.72843359
H         1.15384286      -2.36990317      -0.07297803
H        -1.12830714       1.35077180      -1.85757758
H         0.42819949       3.09987852      -2.67551340
H         2.88455980       2.80915420      -2.31964229
H         4.12388968      -0.27002779       2.13431094
H         2.75946109       0.24521713       1.21663676
H         3.52435469       2.60594890       1.19371669
H         3.35582994       1.98246745       2.84293672
H         4.96241125       2.16150029       2.11632374
H         6.10098420      -0.84803772      -1.84506772
H         8.35654637      -1.73816699      -1.66977961
H         9.55494238      -1.73647476       0.50452884
H         8.44215514      -0.79698108       2.51287393
H         6.20785940       0.14009464       2.37019606
H        -6.05390485      -1.02970028      -1.90316559
H        -8.30420801      -0.34958392      -2.52299750
H        -9.54448343       1.31756981      -1.16428750
H        -8.47943714       2.28208440       0.85802938
H        -6.25144183       1.59715150       1.53440222
