39
lig_168 free ligand  charge=0 uhf=0  ETKDGv3 + MMFF94s  smiles=O=C(c1cccc(C(=O)N2CCCC2)n1)N1CCCC1
O        -1.84188794       3.10196462       1.25278747
C        -1.63163812       1.93482346       0.91631508
C        -0.68652419       1.12251530       1.74796860
C        -0.61143279       1.39284476       3.11231836
C         0.26192826       0.64458195       3.89380656
C         1.04202834      -0.33318592       3.28652161
C         0.93304942      -0.51581699       1.90995594
C         1.77915071      -1.57183042       1.26677206
O         2.05646736      -2.57393977       1.92897371
N         2.26539217      -1.38874439      -0.01991831
C         3.14247998      -2.37494215      -0.62560651
C         3.88260073      -1.60574197      -1.70832248
C         2.84699655      -0.58844854      -2.16433938
C         2.12980256      -0.21435298      -0.87237066
N         0.07626603       0.18770054       1.12916658
N        -2.27715970       1.35975603      -0.16909832
C        -3.24661190       2.11862482      -0.93917076
C        -4.10465461       1.05926976      -1.61241337
C        -3.11557286      -0.07251732      -1.84924469
C        -2.22851537      -0.02845665      -0.61042364
H        -1.22967356       2.16709157       3.55762119
H         0.33377496       0.82137798       4.96359890
H         1.72949633      -0.93709499       3.87189289
H         3.81741523      -2.82353103       0.10933058
H         2.51124392      -3.16098737      -1.05476711
H         4.74691737      -1.08621259      -1.27734216
H         4.23600741      -2.25007912      -2.51775983
H         2.14299291      -1.06444176      -2.85782669
H         3.28725310       0.27713583      -2.66680289
H         2.60952745       0.63218424      -0.37005588
H         1.08281630       0.02138912      -1.06641972
H        -3.82962411       2.79342423      -0.30541273
H        -2.69363685       2.71200024      -1.67580659
H        -4.89415948       0.72387352      -0.92912254
H        -4.57416455       1.41784557      -2.53232509
H        -2.51816595       0.14105764      -2.74400851
H        -3.59875594      -1.04374905      -1.98624587
H        -1.21087432      -0.33647458      -0.85319888
H        -2.62055485      -0.65891358       0.19450793
