113
lig_096 free ligand  charge=0 uhf=0  ETKDGv3 + MMFF94s  smiles=CCCCCCCCN(CCCCCCCC)C(=O)c1ccc(C(=O)N(CCCCCCCC)CCCCCCCC)o1
C         9.42191588      -6.62453426      -4.42022924
C         8.24269356      -5.73672430      -4.78686153
C         7.26558196      -5.50547441      -3.63088787
C         7.86717067      -4.68718863      -2.48518970
C         6.89402734      -4.46204738      -1.32312785
C         5.70822861      -3.56485302      -1.68467893
C         4.83831127      -3.27712092      -0.45930613
C         3.65033020      -2.38223631      -0.82022495
N         2.80149522      -2.10610459       0.33855724
C         3.17295712      -0.96731858       1.18409498
C         2.66629001       0.35561468       0.60732030
C         2.63497258       1.45406727       1.67016564
C         2.06465270       2.75786344       1.10812594
C         1.96426762       3.83125465       2.19373502
C         1.23900078       5.09751195       1.73017623
C         1.97980703       5.85322425       0.62676720
C         1.27616924       7.15640626       0.27956143
C         1.75847387      -3.00624837       0.62188169
O         1.65299975      -4.05444219      -0.01944811
C         0.82547548      -2.70881545       1.69827084
C         0.14086940      -3.56834330       2.53748250
C        -0.62679467      -2.76412667       3.41074806
C        -0.43881904      -1.45273099       3.01629299
C        -0.95352910      -0.22304740       3.59596513
O        -1.05242249      -0.11447142       4.82006013
N        -1.35844930       0.83023102       2.75337831
C        -1.38535403       0.76238781       1.28686951
C        -2.48046883      -0.14569749       0.72245354
C        -2.41133440      -0.19583233      -0.80583460
C        -3.44169379      -1.13941799      -1.43481537
C        -4.88710674      -0.67116129      -1.24392548
C        -5.91711114      -1.59266924      -1.90505062
C        -5.85960034      -1.57385330      -3.43304586
C        -6.97685223      -2.40940348      -4.03958750
C        -1.68832251       2.11255971       3.38326340
C        -3.02186044       2.16011912       4.14062591
C        -4.28193282       1.88079989       3.32176479
C        -4.48389764       2.84267273       2.14928710
C        -5.79237699       2.54419838       1.41234412
C        -5.95273711       3.33821599       0.11315364
C        -6.05780012       4.84752574       0.33247867
C        -6.32362966       5.57983544      -0.97399286
O         0.44841291      -1.42104632       1.97399378
H        10.07560336      -6.14292775      -3.68743934
H        10.02332551      -6.83550292      -5.31041682
H         9.08191394      -7.57956430      -4.00753075
H         8.61168175      -4.77523426      -5.16239187
H         7.69655845      -6.21019694      -5.61163045
H         6.39181531      -4.98296922      -4.03584631
H         6.91057958      -6.47100004      -3.25086977
H         8.74456624      -5.20784070      -2.08528754
H         8.21780441      -3.71961452      -2.86400722
H         6.52959727      -5.42901587      -0.95549666
H         7.45101508      -4.00063440      -0.49802860
H         6.07558630      -2.62015706      -2.10320719
H         5.09333466      -4.04509011      -2.45368360
H         5.44419694      -2.79551827       0.31749703
H         4.47699793      -4.22122013      -0.03356759
H         3.04845990      -2.86806652      -1.59744515
H         3.99657095      -1.42978008      -1.23680576
H         4.26584897      -0.93994082       1.26781758
H         2.80421203      -1.12517401       2.20125640
H         3.30928721       0.66323825      -0.22632270
H         1.66545880       0.22210678       0.18399720
H         2.02025392       1.12505025       2.51687158
H         3.64786528       1.62665973       2.05330326
H         2.70534104       3.10628942       0.29036815
H         1.07053518       2.57260223       0.68516546
H         2.96799037       4.08993898       2.55210508
H         1.41772531       3.42363578       3.05325289
H         1.11660009       5.75805027       2.59762692
H         0.22965033       4.83755753       1.38803680
H         2.04493970       5.23942527      -0.27789851
H         3.00451629       6.07249636       0.94801360
H         0.25644263       6.96967699      -0.07212137
H         1.22426517       7.81864793       1.14966145
H         1.81874158       7.68028075      -0.51360961
H         0.22344322      -4.64708382       2.53010610
H        -1.25763447      -3.08801119       4.22772584
H        -1.51649559       1.77318484       0.88440809
H        -0.40707049       0.43684918       0.93531738
H        -3.45632835       0.23093426       1.03384003
H        -2.39376574      -1.16017259       1.12372106
H        -2.54082380       0.81306719      -1.21641919
H        -1.41117880      -0.53344183      -1.10551375
H        -3.21541929      -1.20817435      -2.50452923
H        -3.32020129      -2.14695740      -1.01921527
H        -5.11943409      -0.63373675      -0.17393439
H        -5.00344384       0.34855109      -1.63031969
H        -5.78248879      -2.61816070      -1.54004155
H        -6.91593337      -1.27211614      -1.58305770
H        -4.90002964      -1.96688669      -3.78459090
H        -5.94407606      -0.54339143      -3.79685998
H        -7.95876565      -2.02493342      -3.74570064
H        -6.91675190      -2.38635553      -5.13220939
H        -6.90520935      -3.45304557      -3.71704204
H        -1.64059849       2.91580770       2.64045500
H        -0.88865398       2.33033041       4.10350339
H        -3.00045853       1.45043093       4.97538621
H        -3.11540645       3.15452923       4.59568416
H        -4.26774191       0.84436020       2.97049280
H        -5.14615576       1.95832886       3.99406644
H        -4.49281958       3.87137334       2.52660048
H        -3.65068017       2.76279712       1.44475309
H        -6.64328818       2.74399479       2.07484797
H        -5.83098514       1.47666634       1.16373101
H        -5.11211072       3.11862371      -0.55660568
H        -6.85913716       2.98458677      -0.39395641
H        -6.86711646       5.06644873       1.03844347
H        -5.13037221       5.23460448       0.76787311
H        -5.51731355       5.40369991      -1.69316636
H        -6.39184589       6.65778402      -0.79701973
H        -7.26499983       5.24972700      -1.42475182
