149
lig_082 free ligand  charge=0 uhf=0  ETKDGv3 + MMFF94s  smiles=CCCCCCCCN(CCCCCCCC)C(=O)COCC(=O)NCCCCCCCNC(=O)COCC(=O)N(CCCCCCCC)CCCCCCCC
C       -12.86202358       2.37066551       4.33278380
C       -12.37968099       3.57711997       3.54126311
C       -12.56180701       3.43271206       2.02731734
C       -11.32712971       2.92235347       1.27597056
C       -10.86328840       1.50087380       1.60008312
C       -11.89582072       0.43140913       1.24176832
C       -11.45119185      -0.99546133       1.57447364
C       -10.44164470      -1.63837662       0.60753099
N        -9.07322049      -1.11189065       0.59286025
C        -8.40024591      -1.04842015      -0.71342675
C        -8.44714575       0.32491489      -1.38969644
C        -9.76661332       0.68395087      -2.07665801
C       -10.10408414      -0.21394499      -3.26999808
C       -11.37724671       0.26475594      -3.97344038
C       -11.83451229      -0.66315824      -5.10252257
C       -10.85935872      -0.71506940      -6.27918114
C       -11.41112369      -1.55738539      -7.41939944
C        -8.36202840      -1.05885460       1.79579279
O        -8.82437293      -1.47446357       2.86082753
C        -6.94821371      -0.44932714       1.78311412
O        -5.91641900      -1.34001062       1.37250309
C        -5.54092345      -2.25491606       2.40428996
C        -4.49243395      -1.68861678       3.36907007
O        -4.34019248      -2.11337403       4.50943342
N        -3.71275305      -0.69963436       2.80706392
C        -2.63584306      -0.05069944       3.52052589
C        -1.32856986      -0.83881450       3.45093388
C        -0.77755503      -0.93809754       2.02439620
C         0.56851410      -1.66544529       2.00326477
C         1.10791440      -1.91420664       0.59160107
C         1.33327665      -0.66590272      -0.26932121
C         2.30523055       0.35557518       0.31799038
N         3.63864073      -0.18476748       0.45691181
C         4.30253059      -0.26940580       1.66266083
O         3.83400665       0.10128509       2.73367004
C         5.68775519      -0.91008309       1.53885947
O         6.34404201      -0.52798616       0.32877276
C         7.05918957       0.69744903       0.46044725
C         8.42342091       0.60367906       1.17843573
O         8.75736551      -0.43946287       1.74558943
N         9.24826714       1.73477653       1.16414365
C         8.82734444       3.04973514       0.66326055
C         9.60039781       3.60054691      -0.53949593
C         9.22677240       2.98461661      -1.89296288
C         9.88456322       1.63099423      -2.16770525
C         9.53173516       1.06785885      -3.54996100
C        10.60297720       1.29218146      -4.62286042
C        10.85397042       2.76022133      -4.96038678
C        11.81184204       2.90399798      -6.13359378
C        10.52421510       1.66163883       1.89370830
C        11.73181532       1.20841888       1.06278005
C        11.74510069      -0.26126310       0.63414213
C        11.97567909      -1.22739859       1.79878788
C        11.99237483      -2.67936619       1.31592468
C        12.22309577      -3.64899172       2.47609258
C        12.23799696      -5.09922731       1.99373104
C        12.46654524      -6.06657754       3.14415022
H       -13.91207555       2.15250216       4.11309373
H       -12.77897537       2.57053592       5.40608018
H       -12.27437662       1.47592411       4.11797818
H       -12.96756066       4.44152034       3.87481046
H       -11.33512977       3.79614137       3.78951461
H       -13.44187646       2.82363726       1.79402851
H       -12.77799531       4.43225083       1.62681253
H       -10.49228480       3.60878159       1.46656962
H       -11.53042947       2.98602464       0.19920592
H        -9.94482586       1.32710844       1.03405473
H       -10.58500839       1.42567533       2.65615948
H       -12.81441357       0.62231379       1.80843862
H       -12.17345601       0.50073726       0.18483319
H       -11.11126850      -1.03767352       2.61286580
H       -12.35229322      -1.62301009       1.53923705
H       -10.85340089      -1.57920205      -0.40621421
H       -10.35631261      -2.70416581       0.85435956
H        -8.80893716      -1.83410079      -1.35735690
H        -7.34977399      -1.31893286      -0.58064506
H        -7.65216980       0.36072238      -2.14550485
H        -8.21273880       1.10741094      -0.65952199
H        -9.69349848       1.72174645      -2.42601142
H       -10.58447906       0.65987337      -1.35461840
H       -10.24819785      -1.24726354      -2.93777990
H        -9.26270548      -0.20892701      -3.97146817
H       -11.22484418       1.27657603      -4.36836852
H       -12.18831516       0.33189186      -3.23748339
H       -12.80943150      -0.30972895      -5.46090978
H       -11.99214200      -1.67391871      -4.70678958
H       -10.66158690       0.29907241      -6.64487387
H        -9.90154546      -1.14089449      -5.96205844
H       -11.59414163      -2.58635807      -7.09370063
H       -10.69807359      -1.58524081      -8.24930589
H       -12.35218060      -1.14255627      -7.79444898
H        -6.93716892       0.40712006       1.10357329
H        -6.73353452      -0.04213918       2.77894832
H        -5.08283223      -3.12120870       1.91531213
H        -6.40944009      -2.60605048       2.97011660
H        -3.91969521      -0.43568318       1.84933753
H        -2.50995986       0.94658674       3.08627099
H        -2.93375663       0.07252656       4.56763927
H        -1.47812608      -1.84675253       3.85666743
H        -0.58840294      -0.34131785       4.08934048
H        -1.49006934      -1.47285242       1.38551423
H        -0.66388455       0.07146517       1.61388075
H         0.45763105      -2.63863041       2.49813964
H         1.30102034      -1.10424843       2.59330720
H         2.04889245      -2.47204743       0.67306563
H         0.41043515      -2.57431839       0.06046393
H         1.70934898      -0.99325964      -1.24730076
H         0.37333806      -0.17337848      -0.46214019
H         2.38769898       1.20687489      -0.36654756
H         1.94317326       0.74295255       1.27499856
H         4.15676949      -0.46901174      -0.36935210
H         5.54193652      -1.99482917       1.50793577
H         6.28315081      -0.66808316       2.42488981
H         7.24171187       1.04862389      -0.55887763
H         6.43251716       1.43758387       0.97026744
H         8.93997390       3.74827020       1.50225423
H         7.76058987       3.05758867       0.42937144
H        10.68092524       3.56072488      -0.37942909
H         9.35125590       4.66856100      -0.60414662
H         9.52905892       3.69258540      -2.67204466
H         8.13664089       2.89525307      -1.97084477
H         9.53412754       0.91347758      -1.42132450
H        10.97149566       1.70208101      -2.05214001
H         9.40612689      -0.01801393      -3.44780124
H         8.56603927       1.45567772      -3.89521772
H        11.54216633       0.82414373      -4.30256385
H        10.28655985       0.76409515      -5.53127733
H        11.28459149       3.27743760      -4.09658581
H         9.90784504       3.25524317      -5.20684085
H        12.77814180       2.44075408      -5.90987041
H        11.40426455       2.43246656      -7.03352288
H        11.98488677       3.96208153      -6.35377400
H        10.40311372       1.01001320       2.76567019
H        10.73432050       2.65973013       2.29703451
H        11.81595692       1.82455172       0.16444628
H        12.63986598       1.40523627       1.64702930
H        12.55927525      -0.39350607      -0.09015490
H        10.82262576      -0.51494974       0.10287750
H        11.19457670      -1.10968496       2.55651205
H        12.93058184      -0.99192000       2.28430588
H        11.03936966      -2.91364416       0.82597502
H        12.78237442      -2.80870658       0.56618342
H        11.43310821      -3.51945494       3.22592058
H        13.17573908      -3.41496422       2.96674468
H        11.28613869      -5.33931325       1.50583723
H        13.02889192      -5.23533927       1.24696685
H        11.67400387      -5.97850557       3.89412355
H        13.42642735      -5.87395282       3.63390179
H        12.47349439      -7.09754406       2.77676931
