83
lig_061 free ligand  charge=0 uhf=0  ETKDGv3 + MMFF94s  smiles=CCCCCCCCN(CCC)C(=O)COCC(=O)N(CCC)CCCCCCCC
C        11.37646113      -0.08346650       0.78279431
C        10.67069672      -1.22966521       1.49078595
C         9.14430390      -1.11391273       1.46719850
C         8.61957834       0.09570104       2.24532602
C         7.09617819       0.09637749       2.40854388
C         6.34369151       0.24455976       1.08438273
C         4.83503675       0.35173435       1.31403511
C         4.08055192       0.49691556      -0.00927484
N         2.63591965       0.59664343       0.20390677
C         2.07324695       1.93802102       0.37862859
C         1.85777830       2.64943970      -0.95858495
C         1.16989565       3.99139122      -0.76798523
C         1.89385116      -0.58399833       0.23532248
O         2.42614677      -1.69081701       0.10488358
C         0.38308936      -0.49320288       0.49388322
O        -0.29773091       0.24872435      -0.51217333
C        -1.66567766       0.45947220      -0.19919390
C        -2.54005866      -0.79847716      -0.05899074
O        -2.85221383      -1.19034751       1.06885717
N        -2.95141285      -1.44992960      -1.21968335
C        -2.39624572      -1.16602899      -2.54891958
C        -3.34286751      -0.34149103      -3.41717990
C        -2.69358574       0.04359409      -4.73689605
C        -3.83536421      -2.61246958      -1.09183282
C        -5.22880323      -2.31326630      -0.51855410
C        -6.06595982      -1.39044703      -1.40518639
C        -7.50554708      -1.21424633      -0.91090876
C        -7.60267736      -0.47498846       0.42654737
C        -9.06262277      -0.21614015       0.80850570
C        -9.22376747       0.42199852       2.18995845
C        -8.64399512       1.82497425       2.28239099
H        12.45493408      -0.26898300       0.75115835
H        11.02051914       0.02130253      -0.24695011
H        11.21930868       0.86631875       1.30225710
H        10.95517820      -2.16925745       1.00219733
H        11.02459420      -1.29189927       2.52642260
H         8.72453633      -2.03012470       1.90025441
H         8.80531418      -1.06943797       0.42599039
H         9.07002338       0.10194488       3.24552805
H         8.92759056       1.02471264       1.75213432
H         6.82429831       0.92812450       3.07037869
H         6.77987807      -0.82443752       2.91358440
H         6.54682861      -0.61698385       0.43858644
H         6.69876477       1.13831265       0.55737412
H         4.61994552       1.21212099       1.95930335
H         4.47864113      -0.53756289       1.84839380
H         4.42299966       1.38501071      -0.55142373
H         4.29288968      -0.36780009      -0.64890479
H         2.76061831       2.51580359       1.00775301
H         1.12942536       1.88278040       0.92654583
H         1.25673945       2.02772176      -1.63100930
H         2.81898946       2.80808419      -1.46046572
H         1.76479933       4.64945401      -0.12667748
H         1.03479949       4.48870622      -1.73354162
H         0.18325641       3.86442383      -0.31091762
H         0.22617451      -0.05082842       1.48429578
H        -0.00584488      -1.51784379       0.51081747
H        -2.09426754       1.09711906      -0.97944127
H        -1.73914817       1.03654586       0.73108664
H        -2.16486520      -2.12226421      -3.03374992
H        -1.44264110      -0.64296712      -2.45502773
H        -4.25278247      -0.91329999      -3.62535493
H        -3.64845050       0.56715846      -2.88607373
H        -2.40263228      -0.84581355      -5.30488545
H        -3.39212238       0.62384436      -5.34783615
H        -1.79998011       0.65385245      -4.57116652
H        -3.33119614      -3.33054969      -0.43341908
H        -3.94323168      -3.09469692      -2.07031606
H        -5.75689836      -3.26774576      -0.40066066
H        -5.14011585      -1.88336937       0.48315720
H        -5.58928362      -0.40665903      -1.47865829
H        -6.10555831      -1.80869444      -2.41798976
H        -8.06023376      -0.65068044      -1.67153166
H        -7.98962701      -2.19501993      -0.82929465
H        -7.12528254      -1.06433734       1.21699936
H        -7.06071644       0.47427824       0.35200968
H        -9.60805676      -1.16806495       0.80524932
H        -9.53594027       0.42176582       0.05212170
H        -8.75998204      -0.21517352       2.95191335
H       -10.29336749       0.47116475       2.42664924
H        -8.87576370       2.26316840       3.25852172
H        -7.55555938       1.81748747       2.17378895
H        -9.06539521       2.47629067       1.51023674
