113
lig_058 free ligand  charge=0 uhf=0  ETKDGv3 + MMFF94s  smiles=CCCCCCCCN(CC(CC)CCCC)C(=O)COCC(=O)N(CCCCCCCC)CC(CC)CCCC
C        -8.05811270       4.97975244       3.45386686
C        -8.12446789       4.65104299       1.97090564
C        -8.18011297       3.14132746       1.73371131
C        -8.24053276       2.81753950       0.23968180
C        -8.41180718       1.32416591      -0.05534984
C        -7.31478371       0.40480949       0.48989300
C        -5.92017073       0.73870737      -0.04132225
C        -4.88354100      -0.27705217       0.44944582
N        -3.54247541       0.04182225      -0.04735816
C        -3.13798822      -0.52647227      -1.34066356
C        -2.34283125      -1.85470521      -1.25037399
C        -3.15037076      -3.02884584      -0.64983737
C        -4.32591869      -3.51329285      -1.48949797
C        -1.77452621      -2.25890345      -2.63465979
C        -0.58800236      -1.40068805      -3.08591460
C        -0.06495969      -1.76897381      -4.47680481
C         0.55397026      -3.15632131      -4.54697508
C        -2.79316928       0.95989912       0.69430702
O        -3.21563569       1.42203278       1.76004584
C        -1.46618155       1.48193442       0.11849220
O        -0.48760932       0.47886109      -0.09368263
C         0.72991489       0.98627399      -0.61883073
C         1.70054702       1.69411373       0.35344183
O         1.29317930       2.12889669       1.43102086
N         3.04267230       1.81664595      -0.04240621
C         3.45693406       1.70747525      -1.44733794
C         4.45961420       0.59406249      -1.76804056
C         3.86296656      -0.81581047      -1.85018755
C         3.70346487      -1.50159674      -0.49284058
C         2.93434997      -2.82500030      -0.56662723
C         3.54629693      -3.90175807      -1.46735641
C         4.94645771      -4.33422696      -1.03152082
C         5.46235942      -5.48252628      -1.88529588
C         3.98666418       2.49625319       0.86983714
C         4.06359986       1.94853294       2.32424129
C         3.61726892       3.02482712       3.34953968
C         4.55620482       4.21776339       3.49401712
C         5.47312579       1.43088368       2.70237966
C         5.82417971       0.09756801       2.04304902
C         7.21989391      -0.41469535       2.40674446
C         7.36271082      -0.80735685       3.86899530
H        -7.16544193       4.54303335       3.91296803
H        -8.93808019       4.59659894       3.98033779
H        -8.01969590       6.06369506       3.60046843
H        -7.24663450       5.07445719       1.46901581
H        -9.00962476       5.12976579       1.53617908
H        -7.29548256       2.67661406       2.18347938
H        -9.05990270       2.72247245       2.23688211
H        -9.08927361       3.34981542      -0.20824498
H        -7.34273443       3.19881315      -0.26026871
H        -9.37491358       0.99133290       0.35150800
H        -8.47611362       1.19219107      -1.14270503
H        -7.56723064      -0.62584066       0.20998762
H        -7.31197617       0.43219064       1.58558689
H        -5.62394481       1.74306875       0.28138310
H        -5.93552881       0.75079984      -1.13784789
H        -4.87065761      -0.28867615       1.54566908
H        -5.16484585      -1.28130174       0.12645722
H        -4.03578287      -0.65502027      -1.95588732
H        -2.53890811       0.22639059      -1.85702271
H        -1.49569600      -1.70726780      -0.57070970
H        -2.47069877      -3.87847778      -0.50161257
H        -3.50111884      -2.76343469       0.35310766
H        -4.86011950      -4.30643251      -0.95599039
H        -3.99020855      -3.93039149      -2.44360343
H        -5.04075755      -2.71365357      -1.69836649
H        -1.44529292      -3.30355102      -2.58586299
H        -2.56712743      -2.20884835      -3.39133773
H        -0.87348689      -0.34424961      -3.10804192
H         0.22514931      -1.49789471      -2.35924868
H        -0.87313957      -1.69077850      -5.21312591
H         0.69796539      -1.03523847      -4.76381574
H         1.33848069      -3.27485917      -3.79356068
H        -0.19481758      -3.93879009      -4.39415813
H         1.00354942      -3.31726253      -5.53209685
H        -1.08772966       2.22942218       0.82337029
H        -1.68916279       1.99941918      -0.82191074
H         0.51368648       1.66163133      -1.45452801
H         1.25200865       0.11657625      -1.01988201
H         3.91021198       2.67292253      -1.70836321
H         2.59298489       1.61468026      -2.10960654
H         4.86735647       0.82055002      -2.76249514
H         5.31201198       0.61516906      -1.08537063
H         2.90661902      -0.78709570      -2.38449876
H         4.53969812      -1.42282569      -2.46417876
H         3.17057854      -0.84747596       0.20304320
H         4.69178061      -1.67502518      -0.05472552
H         1.91363887      -2.62254943      -0.91312155
H         2.83827581      -3.22616241       0.45009717
H         2.88083083      -4.77423994      -1.45127781
H         3.57109467      -3.55479981      -2.50659275
H         4.93044230      -4.64623201       0.01905947
H         5.64694220      -3.49629019      -1.11312171
H         4.81015558      -6.35774706      -1.80201328
H         5.51708723      -5.19314691      -2.93964098
H         6.46581341      -5.77500716      -1.56052769
H         4.98157093       2.46097094       0.41204520
H         3.67900608       3.54854300       0.86592188
H         3.37427361       1.10165384       2.43333019
H         2.62340464       3.40097619       3.08491669
H         3.50901519       2.55123080       4.33360896
H         4.12285655       4.94859045       4.18489466
H         4.72469888       4.72187893       2.53848427
H         5.52581305       3.91854655       3.90268553
H         5.51555675       1.30274924       3.79039667
H         6.23294876       2.17682858       2.43920117
H         5.78969442       0.21680865       0.95921824
H         5.07550711      -0.65794224       2.30908956
H         7.97301271       0.34118531       2.15567303
H         7.43634666      -1.29475324       1.78913571
H         8.34427051      -1.26061058       4.04133254
H         7.28028103       0.06122799       4.52857925
H         6.59833122      -1.53589316       4.15704854
