68
lig_170 free ligand  charge=0 uhf=0  ETKDGv3 + MMFF94s  smiles=O=P(c1ccccc1)(c1ccccc1)c1ccc2ccc3ccc(P(=O)(c4ccccc4)c4ccccc4)nc3c2n1
O         3.45549969       1.39912376      -4.44605638
P         2.95469524       0.93594627      -3.08109957
C         2.11008935      -0.65020181      -3.20137362
C         2.03026571      -1.29623455      -4.44606637
C         1.41966526      -2.54554252      -4.56612614
C         0.88632027      -3.16851482      -3.44109153
C         0.95857446      -2.53992872      -2.20031964
C         1.55889722      -1.28609916      -2.08120315
C         4.33766614       0.70631556      -1.93921556
C         5.62870256       0.51816783      -2.45763543
C         6.71892071       0.33328393      -1.60656483
C         6.53173301       0.33244518      -0.22619562
C         5.25609096       0.51667266       0.30312999
C         4.16486023       0.70335354      -0.54744234
C         1.84433191       2.17264600      -2.34713386
C         1.91356033       3.47939486      -2.80703901
C         1.12247212       4.44273520      -2.19831390
C         0.27998215       4.08913465      -1.13882095
C        -0.49421825       5.06516709      -0.50627978
C        -1.31303233       4.71645486       0.55693104
C        -1.37411677       3.38691798       0.98375319
C        -2.18936854       3.03619732       2.06407982
C        -2.25894474       1.71513837       2.48663220
C        -1.52683435       0.75432773       1.80386289
P        -1.60398908      -1.00182756       2.28871099
O        -0.35378570      -1.44599935       3.03299861
C        -1.92663039      -2.04195921       0.84528476
C        -2.33978279      -1.52753710      -0.39104767
C        -2.64020589      -2.38532568      -1.45168135
C        -2.53194024      -3.76528588      -1.28972436
C        -2.11214634      -4.29113922      -0.07041292
C        -1.80930989      -3.43505445       0.98887872
C        -3.07795162      -1.21186903       3.33138436
C        -4.37273903      -1.13888124       2.79452811
C        -5.48813905      -1.29015580       3.61927809
C        -5.32182996      -1.51610686       4.98466413
C        -4.04107478      -1.59430604       5.52842641
C        -2.92426911      -1.44400009       4.70652579
N        -0.71478703       1.09128811       0.76155778
C        -0.61569108       2.38048583       0.34402250
C         0.23372230       2.73891066      -0.71858539
N         1.01273614       1.81242297      -1.33165637
H         2.45614261      -0.82268428      -5.32917923
H         1.36745088      -3.03345032      -5.53563153
H         0.41395258      -4.14295549      -3.52743139
H         0.54321868      -3.02187703      -1.31885773
H         1.58804094      -0.81220992      -1.10234957
H         5.78299945       0.51644255      -3.53556037
H         7.71281305       0.18765669      -2.02158467
H         7.37930670       0.18486088       0.43783325
H         5.10735856       0.51080314       1.38023731
H         3.17782177       0.83958683      -0.10982205
H         2.58528987       3.74379145      -3.61908521
H         1.18005542       5.47052416      -2.54955104
H        -0.45636529       6.10368773      -0.82882532
H        -1.90039536       5.48919523       1.04866315
H        -2.77196719       3.78918874       2.59070977
H        -2.88088138       1.45926300       3.33774548
H        -2.42569029      -0.45565150      -0.54935851
H        -2.94694918      -1.97359833      -2.41019874
H        -2.76225593      -4.42892723      -2.11894058
H        -2.01762631      -5.36649638       0.05632639
H        -1.48184026      -3.85194989       1.94027806
H        -4.52135429      -0.96843227       1.73058067
H        -6.48848311      -1.23789627       3.19626534
H        -6.19167869      -1.63852096       5.62528792
H        -3.91119698      -1.77802366       6.59216708
H        -1.92576503      -1.51288815       5.13659120
