155
lig_047 free ligand  charge=0 uhf=0  ETKDGv3+randomCoords + MMFF94s  smiles=CCCCCCCCCCN(CCCCCCCCCC)C(=O)[C@H](CCC)O[C@H](CCC)C(=O)N(CCCCCCCCCC)CCCCCCCCCC
C        -5.36389768      -5.85644822       1.89207928
C        -4.69757259      -6.97370280       1.10390914
C        -4.43054037      -6.61511690      -0.35975287
C        -3.42450966      -5.47347235      -0.52858426
C        -3.10544182      -5.22950156      -2.00632543
C        -2.20474116      -4.01226658      -2.24275097
C        -0.70833519      -4.31951269      -2.34639622
C        -0.02654422      -4.84981846      -1.08468780
C        -0.08402632      -3.93711421       0.14555319
C         0.48852663      -2.54021302      -0.11264623
N         0.88390042      -1.84035496       1.11507093
C        -0.03850441      -0.81981079       1.63930671
C        -1.33786445      -1.38831663       2.22526117
C        -2.55749965      -1.43635208       1.29703908
C        -3.30431535      -0.10826663       1.12305244
C        -2.83676666       0.78755298      -0.02753792
C        -3.00581845       0.14552551      -1.40812154
C        -2.72340347       1.11236972      -2.56307243
C        -1.23978330       1.46309713      -2.69204134
C        -0.94745602       2.45575175      -3.81922807
C        -1.19362364       1.88590475      -5.20735004
C         2.13717542      -2.16564910       1.62909294
O         2.80172631      -3.08360083       1.12412619
C         2.77763279      -1.39908151       2.82133950
C         2.46018889      -2.03607692       4.18468125
C         1.13472463      -1.63329689       4.82361518
C         1.02151416      -2.15947895       6.24756615
O         2.64077691       0.01299761       2.87984791
C         3.52476743       0.71596909       1.98860280
C         4.85776965       0.96369905       2.72236258
C         5.97244316       1.47939734       1.81206900
C         7.27225690       1.66848727       2.57950425
C         2.89650872       2.08786262       1.62875801
O         2.32361419       2.75735040       2.49561599
N         3.02278217       2.56791280       0.31970399
C         3.45368748       1.76238917      -0.82836683
C         2.30422172       0.93010988      -1.39821488
C         2.75627084      -0.27710528      -2.21952712
C         3.61046471       0.09180650      -3.42979274
C         3.84044969      -1.07001471      -4.40504498
C         4.57343200      -2.27802728      -3.80721430
C         3.61918708      -3.38936643      -3.35092495
C         4.34611891      -4.58266910      -2.72015367
C         4.58337813      -5.76029634      -3.66942397
C         5.50640817      -5.45050178      -4.83496383
C         2.55060475       3.93055915       0.05453885
C         1.06548727       3.98501696      -0.30502892
C         0.54496247       5.42365731      -0.30547323
C        -0.90794150       5.54872040      -0.77605040
C        -1.93092303       4.70600242      -0.00947785
C        -1.99480833       5.02419817       1.48558889
C        -3.02656542       4.14062270       2.19153570
C        -3.11469806       4.46692146       3.68339271
C        -4.02004380       3.50687103       4.45840957
C        -5.47961052       3.57252940       4.03648605
H        -4.70171135      -4.99265175       2.00237241
H        -6.28633615      -5.52671380       1.40385563
H        -5.61927118      -6.20716069       2.89723346
H        -3.75947747      -7.25656185       1.59554211
H        -5.34814148      -7.85598458       1.13174683
H        -4.04783402      -7.50911519      -0.86754799
H        -5.37521613      -6.35205920      -0.85108756
H        -3.83061346      -4.55340150      -0.09342729
H        -2.51333256      -5.71962345       0.02276552
H        -2.66596473      -6.12728743      -2.45646876
H        -4.05385661      -5.05074122      -2.52958976
H        -2.49902638      -3.56991532      -3.20393904
H        -2.39135201      -3.24010868      -1.49186705
H        -0.55524582      -5.05034121      -3.15088823
H        -0.19263970      -3.40855899      -2.67491418
H         1.02878145      -5.03328752      -1.32593073
H        -0.44111473      -5.82999424      -0.82519502
H         0.47551728      -4.42966505       0.95036001
H        -1.11154423      -3.85706449       0.51012705
H        -0.21885529      -1.91751458      -0.66990556
H         1.37800577      -2.62851055      -0.74703408
H        -0.22570945      -0.10780257       0.83412147
H         0.44877159      -0.25807180       2.43194030
H        -1.60951739      -0.79424665       3.10728896
H        -1.15288379      -2.40586861       2.59060067
H        -3.26818726      -2.13305023       1.76278343
H        -2.30308485      -1.87890477       0.33544113
H        -3.27030430       0.46346484       2.05823881
H        -4.36429300      -0.33841982       0.95165210
H        -3.43659907       1.70588981       0.00290704
H        -1.80155857       1.09455027       0.13357267
H        -4.03712699      -0.21468643      -1.50788033
H        -2.35232757      -0.72636716      -1.51044303
H        -3.31641986       2.02599582      -2.43679074
H        -3.06572039       0.63553852      -3.48853178
H        -0.88741312       1.90720369      -1.75591466
H        -0.65545819       0.54788335      -2.84672486
H         0.10424675       2.75858593      -3.75157252
H        -1.54718673       3.36312397      -3.68356245
H        -0.87680132       2.60502786      -5.96959788
H        -2.25388736       1.67447859      -5.37292636
H        -0.62749809       0.96132900      -5.35849733
H         3.84977849      -1.60967055       2.68761003
H         3.26011759      -1.73679803       4.87581500
H         2.50784811      -3.12919930       4.10314083
H         1.02443924      -0.54398716       4.83929614
H         0.31031409      -2.04894239       4.24425608
H         1.09964046      -3.25118052       6.26988945
H         1.81010415      -1.74470034       6.88347606
H         0.05535254      -1.87908361       6.67877656
H         3.67208817       0.10413347       1.09812460
H         4.69564176       1.67587724       3.54258972
H         5.19474354       0.04036659       3.20820074
H         5.68857525       2.43706011       1.36347036
H         6.14242745       0.76909624       0.99518869
H         7.61278694       0.72327316       3.01418313
H         8.05670717       2.03658072       1.91085858
H         7.14742726       2.39453136       3.38919789
H         4.28037768       1.11689137      -0.52544254
H         3.85926294       2.43043514      -1.59675117
H         1.67128883       1.56855034      -2.02201686
H         1.66683971       0.56557731      -0.58523118
H         3.31223365      -0.95784440      -1.56486662
H         1.85937724      -0.80984556      -2.55790890
H         4.58179873       0.47491108      -3.09478375
H         3.12477617       0.90638608      -3.98144361
H         4.45079397      -0.67840943      -5.22916479
H         2.88717603      -1.37793787      -4.85104926
H         5.23987166      -2.68070468      -4.57705670
H         5.21659012      -1.96114030      -2.97773285
H         2.93582099      -2.98362694      -2.59939995
H         2.99241258      -3.72035023      -4.18746396
H         5.29310425      -4.26700468      -2.26664998
H         3.72370947      -4.95733643      -1.89696008
H         5.01949046      -6.58375841      -3.09087033
H         3.62348686      -6.12398695      -4.05490412
H         6.45040787      -5.01896207      -4.48818491
H         5.03871616      -4.75617999      -5.53877733
H         5.73604354      -6.36855841      -5.38561289
H         3.15912418       4.36670653      -0.74597125
H         2.73228872       4.54067827       0.94775455
H         0.49528119       3.37854786       0.40725852
H         0.91158817       3.54651721      -1.29547291
H         0.64931515       5.85525456       0.69675796
H         1.17158052       6.03353262      -0.96841457
H        -1.20141826       6.60433162      -0.72133181
H        -0.95900835       5.26980863      -1.83595152
H        -2.91896159       4.87862386      -0.45458841
H        -1.71483264       3.64269038      -0.15356081
H        -1.01585629       4.86307503       1.95009593
H        -2.25235868       6.08082212       1.62521250
H        -2.74825976       3.08796830       2.06576156
H        -4.00498318       4.27930336       1.71813511
H        -2.11066102       4.41893099       4.12293393
H        -3.46901028       5.49635528       3.81618216
H        -3.95370156       3.75218201       5.52509896
H        -3.65511741       2.47907879       4.34672938
H        -5.61724952       3.21541421       3.01166890
H        -6.08820393       2.94032849       4.69107048
H        -5.86240688       4.59581348       4.10220061
