72
lig_144 free ligand  charge=0 uhf=0  ETKDGv3 + MMFF94s  smiles=CCN(C(=O)c1cccc(-c2cccc(C(=O)N(CC)c3ccc(C)cc3C)n2)n1)c1ccc(C)cc1C
C         2.92586072      -1.28188999       1.71623850
C         3.67164729      -0.20122206       0.94149409
N         4.46707683      -0.75282459      -0.17158820
C         3.92758944      -1.36925403      -1.32099458
O         4.60915112      -1.97940053      -2.15129804
C         2.45643291      -1.31035098      -1.60569984
C         1.87139364      -2.37323228      -2.28565577
C         0.51542481      -2.30870627      -2.57681267
C        -0.20833089      -1.18456989      -2.19004000
C         0.43907014      -0.14360211      -1.52310879
C        -0.27558206       1.07959485      -1.09113629
C         0.40239250       2.27481023      -0.83503601
C        -0.31236252       3.40383105      -0.44425156
C        -1.69033766       3.31615326      -0.30679256
C        -2.30136512       2.09197177      -0.55197546
C        -3.78878120       2.00884343      -0.42894120
O        -4.42262103       2.97236425      -0.87005372
N        -4.38976304       0.90941387       0.21756889
C        -3.64065111      -0.18887526       0.85114552
C        -3.58539747      -1.42979293      -0.03130063
C        -5.81621847       0.77131963       0.14839604
C        -6.41672850       0.79527301      -1.12169107
C        -7.78676553       0.57847925      -1.28044322
C        -8.59074603       0.32645523      -0.16975995
C       -10.06714507       0.11810432      -0.32913327
C        -8.00882514       0.34771500       1.10317503
C        -6.63090935       0.58775867       1.28236897
C        -6.13274469       0.69620853       2.69696167
N        -1.62614442       0.98201555      -0.95206317
N         1.76773826      -0.20115439      -1.23503921
C         5.88456309      -0.79727945       0.03980810
C         6.53661776      -2.03901279       0.01280320
C         7.90257145      -2.14167493       0.28400209
C         8.64621653      -1.00317435       0.59635605
C        10.11881115      -1.10471764       0.86132299
C         8.01041133       0.24410819       0.58640945
C         6.63804793       0.36681572       0.29445264
C         6.05746919       1.75379436       0.23198508
H         3.62526302      -2.02354751       2.11645877
H         2.19973416      -1.81353494       1.09641659
H         2.38512843      -0.83584870       2.55695438
H         2.98863212       0.56451912       0.57033513
H         4.32579398       0.30361704       1.65990070
H         2.46267283      -3.23248991      -2.58799395
H         0.02697089      -3.12075407      -3.10854338
H        -1.26681203      -1.11660578      -2.42453990
H         1.48113347       2.33357583      -0.95545013
H         0.20125492       4.34332872      -0.25946284
H        -2.27881029       4.18210102      -0.01875115
H        -2.62916518       0.13980611       1.10245776
H        -4.09141092      -0.46264623       1.80582577
H        -2.92300895      -2.18053411       0.41042047
H        -3.22534275      -1.19605305      -1.03623414
H        -4.57850124      -1.87917230      -0.13651934
H        -5.81126541       0.96342213      -2.00953735
H        -8.21470807       0.60327429      -2.27963193
H       -10.45374425      -0.54570444       0.45132837
H       -10.29429298      -0.34863972      -1.29340820
H       -10.58951286       1.07782335      -0.26898086
H        -8.64266745       0.20069122       1.97673972
H        -5.23808096       1.32282644       2.76482731
H        -6.88684641       1.17249896       3.33405434
H        -5.91918885      -0.29712492       3.10270066
H         5.97922891      -2.94688535      -0.20429729
H         8.37631111      -3.11986408       0.25227635
H        10.44387051      -0.32685639       1.56024586
H        10.67598782      -0.99595829      -0.07423062
H        10.36926260      -2.07077125       1.31217849
H         8.59614732       1.13981785       0.78789721
H         6.79884355       2.46474808      -0.14991553
H         5.20307319       1.80459995      -0.44997708
H         5.74698298       2.08204521       1.22827950
