109
lig_067 free ligand  charge=0 uhf=0  ETKDGv3 + MMFF94s  smiles=CCCCCCCCN(CCCCCCCC)C(=O)CC(=O)N(CCCCCCCC)CCCCCCCC
C        -7.79027755       5.29738792      -4.63437688
C        -6.63925918       4.58469804      -3.94043415
C        -7.08902691       3.25014793      -3.34442979
C        -5.99879079       2.54578460      -2.53000157
C        -4.82272336       2.06107841      -3.38224872
C        -3.73202932       1.35883476      -2.56573917
C        -4.17648820       0.01251316      -1.98790534
C        -3.04135517      -0.73550605      -1.27813135
N        -2.49197261      -0.02255333      -0.11377048
C        -3.36537935       0.16005152       1.05672825
C        -3.77478900      -1.14812346       1.74407493
C        -2.60989954      -2.00031631       2.25996631
C        -1.74406646      -1.35463054       3.34661829
C        -2.48530963      -0.90303025       4.60885326
C        -3.19924332      -2.04696947       5.33296928
C        -3.76844406      -1.63665642       6.69344640
C        -4.88110682      -0.60411657       6.59767313
C        -1.20948525       0.54008911      -0.06464183
O        -0.82763383       1.19422377       0.90692741
C        -0.28244058       0.25928178      -1.22715627
C         1.04515747       0.97655338      -1.12994742
O         1.12990198       2.13325658      -1.55715591
N         2.14771856       0.31445115      -0.59086711
C         2.19865043      -1.10552966      -0.22439038
C         1.55166088      -1.44018911       1.12245360
C         2.23444132      -0.82622558       2.34733680
C         3.64267349      -1.35176276       2.64649768
C         3.75900657      -2.86445887       2.86090058
C         2.88959340      -3.38807266       4.00603046
C         3.13144239      -4.87830598       4.24878657
C         2.26291939      -5.40577509       5.37982519
C         3.39270769       1.07736971      -0.46955929
C         4.26421066       0.94003117      -1.72084887
C         5.55881409       1.74289760      -1.58254030
C         6.51991376       1.55370645      -2.76056545
C         5.96998905       2.09555820      -4.08263605
C         7.00902154       2.11269120      -5.20847738
C         7.47281474       0.71695590      -5.62704870
C         8.41688879       0.78060380      -6.81808234
H        -8.60095638       5.51175559      -3.93068376
H        -8.19406434       4.68835147      -5.44947779
H        -7.44803352       6.24722442      -5.05704495
H        -6.24116318       5.23113859      -3.14989636
H        -5.83701945       4.42701639      -4.66877721
H        -7.94672754       3.42676054      -2.68323218
H        -7.43918423       2.58540626      -4.14352547
H        -5.63543856       3.21780820      -1.74321516
H        -6.46368177       1.69094546      -2.02651954
H        -5.18501069       1.38882603      -4.16922223
H        -4.35841655       2.91680537      -3.88497179
H        -2.87082016       1.19403422      -3.22450489
H        -3.39568729       2.02482768      -1.76262580
H        -5.01408694       0.15200798      -1.29783201
H        -4.54770990      -0.62189833      -2.80228887
H        -2.26033474      -0.95810552      -2.00800178
H        -3.40554944      -1.70909556      -0.93480401
H        -4.26294169       0.69119606       0.72249657
H        -2.89592133       0.81769291       1.79499151
H        -4.45470570      -0.91160965       2.57067693
H        -4.36401794      -1.75817198       1.04956674
H        -3.01601319      -2.94526715       2.64044418
H        -1.96184837      -2.27687854       1.41931586
H        -1.21734016      -0.49008031       2.93009153
H        -0.96349089      -2.07108039       3.63295153
H        -3.19651040      -0.11071526       4.35305738
H        -1.75163080      -0.45192357       5.28868870
H        -2.49066104      -2.86922618       5.49137885
H        -4.01038256      -2.44131515       4.71041520
H        -4.16511491      -2.53147881       7.18783306
H        -2.96640015      -1.25085036       7.33336446
H        -4.50931907       0.35243433       6.21903767
H        -5.31157412      -0.42325408       7.58787350
H        -5.68291559      -0.95018883       5.93781207
H        -0.75422287       0.61888865      -2.14862592
H        -0.15133408      -0.81818133      -1.33101266
H         1.69585392      -1.67612242      -1.01179965
H         3.24161837      -1.44099659      -0.23917019
H         1.51256864      -2.52994589       1.23017522
H         0.50978843      -1.11377769       1.12085040
H         1.59659148      -1.00035519       3.22218126
H         2.28028235       0.26333746       2.23367296
H         4.01327453      -0.84100265       3.54434257
H         4.32293140      -1.06711747       1.83648673
H         3.51343433      -3.39503931       1.93385916
H         4.81028482      -3.09509831       3.07530786
H         3.10975634      -2.82614208       4.92168430
H         1.82967753      -3.23243630       3.77539223
H         2.91493438      -5.44414152       3.33517038
H         4.18571747      -5.04987989       4.49515599
H         2.47740463      -4.88127179       6.31642450
H         1.20007302      -5.27885981       5.15029570
H         2.45152903      -6.47239314       5.53677922
H         3.93328872       0.73322931       0.41725499
H         3.15783506       2.13507911      -0.30134891
H         3.69801426       1.28269581      -2.59427316
H         4.50202727      -0.11643161      -1.89368104
H         5.32390276       2.80797686      -1.46682977
H         6.07648815       1.43268347      -0.66627642
H         6.75985790       0.48893404      -2.85894016
H         7.45762236       2.07080381      -2.52268756
H         5.10512602       1.50386739      -4.40340412
H         5.61464214       3.12207375      -3.93004770
H         7.87346610       2.71443825      -4.90236201
H         6.56498089       2.61786285      -6.07534426
H         6.60630230       0.09862470      -5.88816788
H         7.98914149       0.22239886      -4.79743345
H         7.92561684       1.23416650      -7.68483923
H         9.30851348       1.36961791      -6.58054816
H         8.73987791      -0.22652155      -7.09974660
