115
lig_120 free ligand  charge=0 uhf=0  ETKDGv3 + MMFF94s  smiles=CCCCCCOc1cc(CNC(=O)COCC(=O)N(CCCC)CCCC)cc(CNC(=O)COCC(=O)N(CCCC)CCCC)c1
C        -2.20851504       3.08301017      -5.36723782
C        -1.61093884       3.44355934      -4.01669578
C        -0.69004205       2.33831625      -3.49797130
C        -0.13428542       2.68676670      -2.11581450
C         0.82407242       1.63371565      -1.55860314
C         0.17382640       0.26803177      -1.34761265
O         1.06748536      -0.59017891      -0.62584179
C         0.72798171      -0.84906011       0.67357336
C         0.12960295       0.07146156       1.53268981
C        -0.19802038      -0.28352325       2.85185296
C        -0.88781865       0.71273364       3.75037369
N        -2.22160534       0.98681806       3.26974928
C        -2.53402401       2.12154115       2.55614575
O        -1.75129553       3.04601021       2.36231177
C        -3.97656736       2.14184100       2.03890976
O        -4.53124433       0.86152942       1.74078808
C        -4.00757973       0.29304723       0.54811513
C        -4.27532455       1.00464640      -0.78876333
O        -3.32557979       1.19853749      -1.55489982
N        -5.56924619       1.40729523      -1.10960212
C        -6.77170874       1.15648204      -0.30475650
C        -7.14848008      -0.30762669      -0.04500730
C        -7.18501552      -1.18628030      -1.29321793
C        -7.57120223      -2.61784377      -0.95138391
C        -5.71690239       2.28006399      -2.28386645
C        -6.02033695       1.51629536      -3.57617720
C        -7.50418810       1.49370977      -3.95224655
C        -8.01169387       2.83768605      -4.45630521
C         0.11317067      -1.57241438       3.30647891
C         0.74298814      -2.49786155       2.46061534
C         1.11874776      -3.86860150       2.96017822
N         2.46441636      -3.85967556       3.47218906
C         3.52944054      -4.40805856       2.79371177
O         3.42829497      -5.02575051       1.73923303
C         4.86533505      -4.19462975       3.51072730
O         4.89543353      -2.96713248       4.24250146
C         5.22376742      -1.85000721       3.41870227
C         6.70552429      -1.74015416       2.99884110
O         7.54300796      -2.52817312       3.44607226
N         7.04980833      -0.72803485       2.09853168
C         6.09629494       0.24703974       1.55108367
C         5.41100130      -0.22538040       0.26700855
C         4.28106113       0.70236079      -0.18366212
C         4.75625404       2.09326162      -0.57372821
C         8.46186450      -0.57994439       1.73688735
C         8.86166031      -1.12800274       0.36328431
C         8.83340565      -2.65377077       0.23523603
C         7.47966200      -3.21675807      -0.16671207
C         1.06052821      -2.11691309       1.14845455
H        -2.86257279       3.88693378      -5.71907877
H        -1.42407819       2.93032430      -6.11526048
H        -2.80357152       2.16652941      -5.30041773
H        -1.05149068       4.38175527      -4.10820295
H        -2.42294823       3.61874117      -3.30157077
H         0.13845838       2.18844788      -4.20063482
H        -1.25043757       1.39803259      -3.45363935
H        -0.96110120       2.83214413      -1.40981928
H         0.40006737       3.64311552      -2.17377234
H         1.23289647       1.99870047      -0.60885419
H         1.68899853       1.52197132      -2.22420298
H         0.00890206      -0.21150495      -2.31891150
H        -0.81096785       0.34624528      -0.87343799
H        -0.08799981       1.08148051       1.19413188
H        -0.29528906       1.63236006       3.80872138
H        -0.98869127       0.31701348       4.76657406
H        -2.93061709       0.26608233       3.34522222
H        -4.03939594       2.80437524       1.16918172
H        -4.59011545       2.58102987       2.83289521
H        -4.38393069      -0.73008034       0.45974361
H        -2.92141461       0.18706812       0.65235036
H        -6.64827176       1.67768263       0.65008948
H        -7.62264437       1.63677169      -0.80195861
H        -8.13962707      -0.31771487       0.42735464
H        -6.47766435      -0.75267499       0.69376049
H        -6.20548731      -1.19616338      -1.78221253
H        -7.91091480      -0.78915601      -2.00854340
H        -7.59648623      -3.23001554      -1.85834004
H        -6.84915053      -3.06438979      -0.26026067
H        -8.56182670      -2.65715749      -0.48723363
H        -6.46472690       3.04785678      -2.06017403
H        -4.77611722       2.82527446      -2.42819824
H        -5.46661561       1.98482632      -4.39975271
H        -5.65022506       0.48710982      -3.50347804
H        -7.65010979       0.75228857      -4.74683073
H        -8.11503180       1.17520705      -3.10324110
H        -7.43109644       3.17736832      -5.31992581
H        -9.05787687       2.75075157      -4.76691131
H        -7.95743759       3.60728960      -3.68129768
H        -0.12980354      -1.85902164       4.32803686
H         1.00788266      -4.61055770       2.16165181
H         0.45661778      -4.17127403       3.77880416
H         2.67777310      -3.33053575       4.31106912
H         4.97966585      -5.01067175       4.23162587
H         5.68344895      -4.25863851       2.78659651
H         4.99443493      -0.95880631       4.01235909
H         4.57595576      -1.84289039       2.53810600
H         6.63134556       1.18703178       1.37806502
H         5.33791462       0.46070558       2.31062189
H         6.14142608      -0.31459831      -0.54249199
H         4.99397928      -1.22807228       0.41209074
H         3.78705585       0.24822075      -1.05042115
H         3.52748808       0.78392850       0.60778944
H         5.15443739       2.63718111       0.28776007
H         5.53460697       2.04165652      -1.34150336
H         3.92196230       2.67666274      -0.97607205
H         8.69942157       0.49010375       1.77862207
H         9.09317571      -1.04925597       2.50047474
H         8.27720960      -0.66250244      -0.43515202
H         9.89985916      -0.81180275       0.19438036
H         9.55096285      -2.94131206      -0.54358851
H         9.17673888      -3.12607744       1.16226638
H         7.12687135      -2.76312363      -1.09828628
H         6.72282556      -3.05606364       0.60225019
H         7.55787735      -4.29673156      -0.32916107
H         1.56245503      -2.81945924       0.48444606
