68
lig_118 free ligand  charge=0 uhf=0  ETKDGv3 + MMFF94s  smiles=CCCCCCOCCC(C(=O)N(C)CCCC)C(=O)N(C)CCCC
C         8.27168018      -0.04138259      -1.57652602
C         7.07473333       0.89266592      -1.65757230
C         6.09951619       0.65534053      -0.50364953
C         4.89593074       1.59580528      -0.59381803
C         3.94297992       1.47974193       0.59681650
C         3.24953105       0.12194518       0.69564364
O         2.33440980       0.11368533       1.79463975
C         1.02850454       0.58080395       1.45492759
C         0.18493796      -0.56913087       0.90468226
C        -1.27586368      -0.14916535       0.65208810
C        -2.10950988      -1.41594616       0.50181065
O        -2.40373229      -1.84519884      -0.61638849
N        -2.53728929      -2.07211601       1.65707401
C        -2.20200397      -1.70849798       3.02940597
C        -3.34454337      -3.28485371       1.49454978
C        -2.46944347      -4.53323519       1.35480944
C        -3.27553464      -5.83116546       1.28350431
C        -4.13400537      -5.94358936       0.03314764
C        -1.38358451       0.76220651      -0.57428717
O        -0.39755766       0.97662077      -1.28673116
N        -2.59724075       1.40427351      -0.82124529
C        -3.83204229       1.18311153      -0.08046922
C        -2.69794436       2.23947836      -2.01900293
C        -2.09657375       3.63753576      -1.83714274
C        -2.84944897       4.48962756      -0.81469699
C        -2.27892292       5.89745380      -0.73769789
H         8.82402860       0.10888211      -0.64343495
H         8.95569937       0.14589099      -2.41016393
H         7.95621393      -1.08852259      -1.62462787
H         7.42745966       1.93044309      -1.64027706
H         6.56296955       0.73948630      -2.61484542
H         5.76417453      -0.38757043      -0.52761211
H         6.61630825       0.80954359       0.45125820
H         5.25383826       2.63163328      -0.64523572
H         4.34595788       1.40575298      -1.52357693
H         4.47981095       1.68210996       1.53207888
H         3.18921547       2.27194255       0.51760800
H         3.98817029      -0.65778498       0.90502368
H         2.74823410      -0.14192333      -0.24187072
H         1.08196787       1.43081023       0.76797024
H         0.57726327       0.94454767       2.38454791
H         0.63546296      -0.96405011      -0.01460055
H         0.23910083      -1.40488731       1.61376415
H        -1.63590580       0.43758302       1.50266951
H        -1.54720446      -0.84192979       3.10151025
H        -1.70222725      -2.55571906       3.50775202
H        -3.13048610      -1.48862815       3.56475796
H        -4.01404976      -3.37489817       2.35802227
H        -3.97963811      -3.16948325       0.60966416
H        -1.79017634      -4.59814883       2.21365239
H        -1.83111607      -4.44543849       0.46703353
H        -3.91020447      -5.92598788       2.17220983
H        -2.57611477      -6.67552023       1.30214428
H        -4.93074563      -5.19418217       0.02436257
H        -3.53001133      -5.81836149      -0.87104745
H        -4.60734440      -6.92982852      -0.00960387
H        -4.44546986       0.47196569      -0.64155073
H        -3.65561902       0.78801540       0.91956431
H        -4.37430606       2.12756995       0.01756363
H        -2.16841630       1.73453672      -2.83623830
H        -3.74925558       2.31029681      -2.32240454
H        -1.04415221       3.56050600      -1.53953734
H        -2.11418742       4.14574158      -2.80921540
H        -2.78686727       4.03094000       0.17824540
H        -3.91024118       4.54625003      -1.08445639
H        -2.82853274       6.48905284       0.00113364
H        -2.35539179       6.40552744      -1.70430047
H        -1.22519439       5.87782212      -0.44165269
