71
lig_077 free ligand  charge=0 uhf=0  ETKDGv3 + MMFF94s  smiles=CCCCCCCCN(CCCCCCCC)C(=O)COCC(=O)N(C)C
C        -5.56848573      -3.48466317       2.85307495
C        -4.30983674      -2.77010819       2.38525940
C        -3.98884042      -1.56796712       3.27396312
C        -2.79238803      -0.75092199       2.77738892
C        -1.46541970      -1.51319614       2.84602058
C        -0.24830953      -0.62952008       2.55099260
C        -0.21661040      -0.11198442       1.11307441
C         1.02709361       0.74145805       0.85007149
N         0.96991822       1.35926844      -0.47764855
C         1.52507842       0.59238855      -1.59471009
C         3.01709939       0.87716170      -1.77815374
C         3.62709648       0.16394410      -2.98764796
C         3.54793453      -1.36588237      -2.96295042
C         4.16701673      -2.04180555      -1.73532997
C         5.64124496      -1.71925188      -1.47344337
C         6.56752890      -2.14405496      -2.61330988
C         8.02735551      -1.90340181      -2.26007162
C         0.40630977       2.60811302      -0.74297106
O         0.37061144       3.07049943      -1.88674946
C        -0.18433903       3.39818359       0.44805446
O        -1.11712839       4.42876307       0.15084280
C        -2.32105682       3.95523725      -0.43760331
C        -3.25310643       3.06089259       0.41470464
O        -2.98732743       2.80344544       1.59151930
N        -4.38854993       2.54578299      -0.20797917
C        -4.77380269       2.79931973      -1.58892172
C        -5.25581213       1.64629748       0.53701777
H        -6.43441527      -2.81567696       2.82177248
H        -5.77925398      -4.34276341       2.20717326
H        -5.45334441      -3.85087828       3.87824432
H        -3.47844558      -3.48293211       2.39382372
H        -4.44802532      -2.44119469       1.34881111
H        -3.80568959      -1.90346503       4.30196015
H        -4.86301489      -0.90576463       3.30940765
H        -2.71801096       0.15475196       3.39181599
H        -2.98845730      -0.42322202       1.75049156
H        -1.34595445      -1.93578314       3.85114642
H        -1.47552278      -2.35544580       2.14507020
H         0.65958093      -1.21538901       2.74037359
H        -0.23185250       0.21495388       3.25069525
H        -1.11435334       0.47965792       0.90611332
H        -0.23729555      -0.95793675       0.41528697
H         1.93302346       0.12763272       0.91444197
H         1.12466838       1.52182772       1.61088491
H         1.34334553      -0.47012340      -1.40288835
H         0.98820759       0.84712564      -2.51561270
H         3.16311875       1.95717004      -1.90862939
H         3.56528159       0.61179496      -0.86709851
H         4.67499179       0.47221322      -3.08285533
H         3.12627230       0.51931054      -3.89712369
H         4.02713868      -1.75217193      -3.87056645
H         2.49828029      -1.67532340      -3.03526206
H         3.58771925      -1.77615826      -0.84304005
H         4.05835469      -3.12777133      -1.85023609
H         5.94316279      -2.23913198      -0.55535861
H         5.76423905      -0.64870339      -1.27398561
H         6.42211787      -3.20750535      -2.83526802
H         6.33168926      -1.58468185      -3.52484324
H         8.21250026      -0.84321119      -2.05983765
H         8.67324355      -2.21069876      -3.08853013
H         8.31663386      -2.47675958      -1.37356281
H        -0.62547384       2.72411803       1.18159695
H         0.66723522       3.88215254       0.94016570
H        -2.89882514       4.84993659      -0.69546309
H        -2.08931177       3.43448646      -1.37174617
H        -4.64494816       1.87424582      -2.15845964
H        -5.82683296       3.09583177      -1.61350787
H        -4.18561502       3.58833000      -2.05724927
H        -6.26892722       2.05921264       0.54505930
H        -4.92708703       1.50642136       1.56958423
H        -5.26342255       0.67352066       0.03612856
