107
lig_032 free ligand  charge=0 uhf=0  ETKDGv3 + MMFF94s  smiles=CCCCCCCCCCCCN(CCC)C(=O)COCC(=O)N(CCC)CCCCCCCCCCCC
C        11.02222194      -1.08011980       3.55652570
C         9.52630740      -1.26083730       3.76060534
C         8.72455990       0.03162751       3.58945811
C         8.83633284       0.70736933       2.21927002
C         8.35620716      -0.17502630       1.06426367
C         8.37380471       0.59238225      -0.26001490
C         8.02194245      -0.27436613      -1.47305835
C         6.64856254      -0.95419054      -1.43864717
C         5.48268820       0.03396333      -1.35348799
C         4.10911639      -0.64625672      -1.32473333
C         3.73003319      -1.31080925      -2.65079087
C         2.35951912      -2.00149379      -2.61158688
N         1.23928560      -1.08110450      -2.41259806
C         0.59853398      -1.06773551      -1.09118460
C        -0.27204836      -2.30048299      -0.82031398
C        -1.49288390      -2.39647140      -1.72141063
C         0.85566175      -0.28117946      -3.48877495
O         1.38092679      -0.39103116      -4.60218457
C        -0.26742294       0.74239289      -3.28477188
O         0.11883953       1.79516081      -2.40738528
C        -0.90615170       2.76432612      -2.23396472
C        -2.13176810       2.32911344      -1.40275740
O        -2.15627184       1.23465909      -0.83340773
N        -3.21003645       3.21146693      -1.32974899
C        -3.23765537       4.55051352      -1.92174938
C        -3.91170931       4.54781345      -3.29392903
C        -3.90818650       5.93405291      -3.91701284
C        -4.39404428       2.77870765      -0.58353438
C        -4.28595697       3.13819268       0.90035684
C        -5.42944827       2.57216591       1.74831617
C        -5.52514575       1.04116795       1.78936852
C        -4.26597874       0.37016950       2.34007469
C        -4.38892596      -1.14930470       2.51048785
C        -4.50425308      -1.92343380       1.19188312
C        -5.93951709      -2.22521930       0.74015413
C        -6.45240956      -3.60949006       1.15655889
C        -6.70488224      -3.80786207       2.65284406
C        -7.78241237      -2.90739495       3.26388280
C        -9.16155267      -3.11053923       2.65565313
H        11.41598168      -0.29458397       4.20913405
H        11.25692100      -0.82036619       2.52010269
H        11.54836466      -2.01095979       3.79151930
H         9.15439194      -2.03418276       3.07973897
H         9.35679424      -1.63806040       4.77649135
H         7.66859152      -0.18597702       3.79287022
H         9.04305971       0.74978591       4.35545309
H         8.23294081       1.62368581       2.24393708
H         9.86992433       1.02531664       2.04044807
H         7.34125746      -0.52625292       1.28079423
H         8.99823422      -1.05823639       0.97468278
H         7.69558726       1.45131269      -0.20203561
H         9.37755560       1.00607296      -0.42053027
H         8.08608132       0.34897811      -2.37374295
H         8.78790885      -1.05230396      -1.58359703
H         6.55814552      -1.55261175      -2.35207872
H         6.59981049      -1.66080125      -0.60244265
H         5.57455620       0.62629207      -0.43604019
H         5.52850869       0.73828015      -2.19272617
H         3.36618766       0.12314789      -1.08398331
H         4.07987650      -1.38432760      -0.51429763
H         3.75477413      -0.56134631      -3.45010187
H         4.47373881      -2.07265074      -2.90838589
H         2.35184834      -2.76733247      -1.82876908
H         2.20360022      -2.52046845      -3.56527848
H        -0.00059955      -0.16909703      -0.95403391
H         1.39468524      -1.02295874      -0.33985700
H         0.31789709      -3.21752881      -0.92439293
H        -0.61226345      -2.26244133       0.22156620
H        -2.08033134      -3.28373093      -1.46387501
H        -1.20779565      -2.47808135      -2.77446938
H        -2.13995956      -1.52281834      -1.60108277
H        -0.50644376       1.16694836      -4.26755733
H        -1.15772077       0.22200933      -2.92397565
H        -1.23039755       3.12500172      -3.21550621
H        -0.44469594       3.60356630      -1.70275727
H        -3.76779854       5.21971566      -1.23412531
H        -2.21836671       4.93668768      -2.01105177
H        -3.40072238       3.84788732      -3.96489415
H        -4.94604249       4.19611465      -3.20526172
H        -4.44428440       6.64929163      -3.28508866
H        -2.88545502       6.29807875      -4.05784882
H        -4.39811073       5.91121342      -4.89544820
H        -4.50015963       1.69684521      -0.71002113
H        -5.28477192       3.23853755      -1.02584483
H        -3.32190477       2.80836422       1.30389314
H        -4.28791432       4.23091454       1.00155275
H        -6.38106799       2.97122465       1.37596529
H        -5.31782406       2.94602787       2.77373384
H        -6.38021734       0.76989426       2.42096655
H        -5.74839376       0.66463909       0.78679675
H        -4.03234646       0.80544152       3.31973229
H        -3.40847468       0.58047354       1.69160189
H        -3.47368973      -1.48746871       3.01365246
H        -5.21321541      -1.38184350       3.18959055
H        -3.99594586      -1.35804918       0.40068307
H        -3.95168367      -2.86661657       1.28547686
H        -6.63794850      -1.44655255       1.05818069
H        -5.94539340      -2.20567089      -0.35772061
H        -5.73266971      -4.36836826       0.82383453
H        -7.37560540      -3.81884060       0.60341191
H        -5.76822187      -3.66995332       3.20452303
H        -6.99468981      -4.85423349       2.81375277
H        -7.50251096      -1.85285284       3.17685269
H        -7.84165618      -3.12436350       4.33735589
H        -9.90417908      -2.52324671       3.20536675
H        -9.19065524      -2.78514944       1.61166671
H        -9.46097793      -4.16231777       2.70084878
