89
lig_026 free ligand  charge=0 uhf=0  ETKDGv3 + MMFF94s  smiles=CCCCCCC(C)N(CCCC)C(=O)COCC(=O)N(CCCC)C(C)CCCCCC
C         9.50234953       0.81635551       4.54379370
C         8.58337329       0.14528011       3.53426200
C         8.13766550       1.12573987       2.44884563
C         7.30288172       0.47373788       1.34225075
C         5.95829183      -0.06968864       1.83680703
C         5.06632648      -0.57797293       0.69417626
C         3.98237699       0.41999865       0.23577934
C         4.54809487       1.72994742      -0.31973060
N         3.02636388      -0.16677940      -0.74023910
C         3.55777384      -0.84334533      -1.93462817
C         3.60022863      -2.36867991      -1.78872519
C         4.16692564      -3.07396650      -3.02311778
C         3.27786999      -2.95363753      -4.25130486
C         1.65928702       0.07320741      -0.53502420
O         1.24716130       0.68045865       0.45714937
C         0.66991888      -0.42932923      -1.61131797
O        -0.71225204      -0.27458468      -1.32122528
C        -1.16992607       1.05824274      -1.49546529
C        -2.67633869       1.21825969      -1.23304192
O        -3.40482909       1.58885662      -2.15979194
N        -3.16707244       0.98796437       0.05711376
C        -2.31035711       0.59535850       1.18467332
C        -2.20911016      -0.91912377       1.39961509
C        -3.43040218      -1.52670453       2.08899387
C        -3.20749115      -2.99446298       2.42152409
C        -4.60297852       1.22560437       0.34807832
C        -4.90436437       2.72781724       0.29231035
C        -5.52901028       0.38149379      -0.55873823
C        -6.81317514      -0.12848680       0.11150573
C        -7.86274106       0.91618834       0.48345177
C        -8.38615763       1.80215832      -0.65226577
C        -9.22528954       1.07233810      -1.70585837
C        -8.42207295       0.57909722      -2.89960068
H         8.99767833       1.65270311       5.03794866
H        10.40651774       1.19799358       4.05885320
H         9.80677037       0.10027666       5.31354623
H         9.10807537      -0.70236692       3.07874627
H         7.71381439      -0.25559178       4.06587969
H         7.56859727       1.94669496       2.90198043
H         9.02516145       1.57564363       1.98646215
H         7.14055442       1.22019646       0.55812255
H         7.87839579      -0.33889632       0.88186021
H         6.15537672      -0.91604274       2.50586119
H         5.43202618       0.68462941       2.43284622
H         4.54886772      -1.47522236       1.05878447
H         5.68896961      -0.90058489      -0.14786313
H         3.41685438       0.68975942       1.13584934
H         3.74350627       2.37513309      -0.69003895
H         5.23687130       1.55083225      -1.15146437
H         5.08245203       2.28986135       0.45353907
H         2.94093243      -0.56617838      -2.79246896
H         4.55993549      -0.45611387      -2.14697673
H         4.22402186      -2.64081648      -0.93124505
H         2.60412380      -2.76529677      -1.56650640
H         4.29060748      -4.13790848      -2.78787408
H         5.16472979      -2.68258181      -3.25282737
H         2.26291565      -3.30349246      -4.03781203
H         3.22062466      -1.92094147      -4.60699159
H         3.68119170      -3.56196460      -5.06728606
H         0.82724939      -1.50332530      -1.73273310
H         0.89650313       0.05543670      -2.56697723
H        -0.62617983       1.76253925      -0.85857782
H        -0.99381954       1.35753940      -2.53642515
H        -1.30527533       0.98749736       1.02021796
H        -2.67122485       1.09553841       2.09141105
H        -1.32819172      -1.10969533       2.02561969
H        -2.04309458      -1.43576783       0.44884361
H        -4.30537436      -1.44978130       1.43877342
H        -3.65385811      -0.97945691       3.01172004
H        -4.09614123      -3.41237477       2.90485718
H        -2.36023788      -3.11846731       3.10348633
H        -3.00813888      -3.57578910       1.51559326
H        -4.76991824       0.90791821       1.38411456
H        -5.89508533       2.95802966       0.68843036
H        -4.17728045       3.28749390       0.89163974
H        -4.85749762       3.11888064      -0.72869722
H        -4.97975800      -0.51399974      -0.88042888
H        -5.77342367       0.92600750      -1.47660108
H        -7.27550870      -0.87466525      -0.54460530
H        -6.54238135      -0.67669725       1.02246246
H        -7.46239530       1.55736320       1.27623967
H        -8.71471420       0.39534320       0.93982329
H        -7.57298980       2.36373881      -1.12360088
H        -9.03566172       2.55419841      -0.18452589
H        -9.77776537       0.24001658      -1.25566219
H        -9.97668147       1.77512740      -2.08750580
H        -7.71335777      -0.20369159      -2.62282202
H        -7.86551830       1.39925742      -3.36430904
H        -9.09517210       0.16071849      -3.65512746
