126
lig_064 free ligand  charge=0 uhf=0  ETKDGv3 + MMFF94s  smiles=CCCCCCCCN(CCCCCCCC)C(=O)C(C)OC(C(=O)N(CCCCCCCC)CCCCCCCC)c1ccccc1
C         8.11060346      -8.30247252       0.43345305
C         8.40889794      -6.81449016       0.34037945
C         7.14084561      -5.97686431       0.51250200
C         7.44828022      -4.48093209       0.41395417
C         6.23628122      -3.58787279       0.69912791
C         5.14225588      -3.69127642      -0.36671302
C         3.92911487      -2.80421650      -0.07417227
C         4.23041168      -1.30728766      -0.16217708
N         3.01303581      -0.50356523      -0.01362800
C         2.29131607      -0.17441080      -1.24294464
C         2.74335683       1.17353031      -1.80720855
C         2.00636391       1.52160061      -3.10042483
C         2.47802614       2.83716953      -3.72904185
C         2.32726965       4.08560320      -2.85101955
C         0.91398788       4.35822404      -2.32770199
C        -0.08804819       4.67074222      -3.43883513
C        -1.47902180       4.91953187      -2.87611068
C         2.63918272      -0.13098746       1.27904992
O         3.29035585      -0.50318104       2.26109775
C         1.41266419       0.79982109       1.46901628
C         1.93717444       2.12544889       2.02363136
O         0.45479978       0.32408167       2.40988601
C        -0.50089844      -0.61002527       1.88560345
C        -1.77926807      -0.53130479       2.78297306
O        -1.68442204      -0.54579402       4.01678903
N        -3.03935930      -0.41959575       2.17184547
C        -3.27748997      -0.58737395       0.73619503
C        -3.21683884       0.73249423      -0.03390593
C        -3.21644867       0.54513886      -1.55455235
C        -1.86401667       0.06714638      -2.08697761
C        -1.84164032      -0.17691435      -3.59909862
C        -2.09121753       1.08789645      -4.42256535
C        -1.92277850       0.87357184      -5.92834017
C        -0.47884873       0.64230944      -6.34798461
C        -4.21051656      -0.31126898       3.05191397
C        -4.32473428       1.01153037       3.82360861
C        -4.68245053       2.24013333       2.98486540
C        -6.03908118       2.18301842       2.27434121
C        -7.25675811       1.98128186       3.18246733
C        -7.43464986       3.01608027       4.29745767
C        -7.60930228       4.44371933       3.77872621
C        -7.89007251       5.41565506       4.91461979
C         0.05440761      -2.02559152       1.87619215
C        -0.04893182      -2.83440999       0.73360745
C         0.43297289      -4.14547527       0.74233340
C         1.02956431      -4.66302359       1.88970412
C         1.14778100      -3.86988265       3.02803411
C         0.66242258      -2.56169604       3.02179638
H         9.03060462      -8.88200014       0.30836535
H         7.67910884      -8.55587560       1.40706883
H         7.40623818      -8.61095146      -0.34567426
H         9.14057875      -6.54625097       1.11134240
H         8.86775623      -6.59959138      -0.63173155
H         6.68602786      -6.19585089       1.48609095
H         6.41622211      -6.26439754      -0.25718212
H         8.23291229      -4.23044806       1.13890003
H         7.85116172      -4.24897302      -0.57944818
H         5.82074967      -3.83500323       1.68349694
H         6.59416449      -2.55381716       0.75672808
H         4.78683158      -4.72584563      -0.42824734
H         5.55539625      -3.43800044      -1.35038757
H         3.53052087      -3.04392906       0.91811809
H         3.14003917      -3.05597068      -0.79349223
H         4.94286890      -1.01926733       0.61795009
H         4.69649705      -1.06068167      -1.12320602
H         2.46798489      -0.97131389      -1.97514286
H         1.21557609      -0.17389379      -1.04941038
H         3.82359875       1.15032405      -1.99630610
H         2.57545551       1.95277519      -1.05719005
H         2.16304029       0.71778442      -3.83065443
H         0.92814686       1.56228410      -2.91645217
H         3.53601338       2.73753903      -4.00307178
H         1.93822658       2.98725965      -4.67125959
H         3.00754777       4.00890580      -1.99453237
H         2.66885326       4.95574168      -3.42579753
H         0.56109062       3.51153740      -1.72816535
H         0.96251411       5.21633225      -1.64531267
H         0.24005658       5.55667707      -3.99470389
H        -0.14053007       3.84390828      -4.15330015
H        -1.47686752       5.76751233      -2.18394544
H        -1.84838257       4.03881478      -2.34061303
H        -2.18073953       5.14301510      -3.68575540
H         0.91102039       1.03604941       0.53044641
H         2.69700004       2.56295270       1.36856176
H         1.11654946       2.84232952       2.13707508
H         2.37746140       1.99136391       3.01842852
H        -0.74675866      -0.29645551       0.86977739
H        -2.54944759      -1.30104985       0.34853408
H        -4.25500195      -1.06160043       0.58916045
H        -2.34405580       1.32311632       0.26858619
H        -4.09572482       1.32932878       0.22694859
H        -3.46002331       1.51304406      -2.00725182
H        -4.00855751      -0.15423031      -1.84656895
H        -1.58494054      -0.87171083      -1.59936633
H        -1.09170972       0.79932421      -1.82360213
H        -0.86056698      -0.59587701      -3.84875058
H        -2.58630845      -0.93857293      -3.85985845
H        -3.11485746       1.43811955      -4.24752565
H        -1.42052739       1.88590769      -4.08867373
H        -2.29288997       1.76548288      -6.44814667
H        -2.54217617       0.03245262      -6.26028619
H        -0.08642488      -0.29606820      -5.94638353
H         0.16434402       1.46006116      -6.00812344
H        -0.40961951       0.58950798      -7.43929062
H        -5.12411932      -0.50367368       2.48087379
H        -4.13305631      -1.12568957       3.78378014
H        -3.38655119       1.22647041       4.34694408
H        -5.07784157       0.88450084       4.61011055
H        -3.89601136       2.41113199       2.24207089
H        -4.65879347       3.12103914       3.63776417
H        -6.03236015       1.37645303       1.53273622
H        -6.16648485       3.10759630       1.69857952
H        -7.21049176       0.98378505       3.63533404
H        -8.15648511       1.98249078       2.55400448
H        -6.58749961       2.97314304       4.99137380
H        -8.32199635       2.73664732       4.87958639
H        -6.70615411       4.77173206       3.25322786
H        -8.43692010       4.48092756       3.06108595
H        -8.80939135       5.14593541       5.44416527
H        -7.06686935       5.42352294       5.63617973
H        -8.00914167       6.43101889       4.52371552
H        -0.50455234      -2.45663220      -0.17618575
H         0.34704521      -4.76393167      -0.14701887
H         1.40980773      -5.68076429       1.89707522
H         1.62166084      -4.26312992       3.92353434
H         0.76557965      -1.95021449       3.91852448
