169
lig_069 free ligand  charge=0 uhf=0  ETKDGv3+randomCoords + MMFF94s  smiles=CCCCCCCCN(CCCCCCCC)C(=O)CN(CC(=O)N(CCCCCCCC)CCCCCCCC)CC(=O)N(CCCCCCCC)CCCCCCCC
C         3.06579328      -6.45619506       2.03577590
C         2.53843191      -7.49262079       1.05393085
C         3.29286032      -7.51332034      -0.27929860
C         2.63774276      -6.69947495      -1.40166197
C         2.50805361      -5.19442239      -1.16502474
C         3.85537490      -4.46954845      -1.08844662
C         3.73267757      -3.01043159      -0.63735687
C         2.88654878      -2.14814072      -1.57517015
N         2.75615913      -0.76750060      -1.09940118
C         3.75955194       0.20471232      -1.54156131
C         3.67387427       0.57252429      -3.02607860
C         2.33969740       1.20391926      -3.43343271
C         2.37368788       1.62652636      -4.90465882
C         1.07672252       2.28002440      -5.38682986
C        -0.08270478       1.29022909      -5.52046120
C        -1.28659218       1.94271533      -6.20196979
C        -2.42536825       0.95489053      -6.39650656
C         1.76154736      -0.50878236      -0.14720368
O         1.08990382      -1.43141340       0.32431846
C         1.56269715       0.95918567       0.29397402
N         0.30330022       1.18350587       1.03894300
C        -0.91431248       0.88452504       0.23556338
C        -1.20866755       1.82520169      -0.95273331
O        -0.35805236       2.61189479      -1.38097622
N        -2.47166464       1.72561254      -1.55679337
C        -2.79434728       2.67708910      -2.62948353
C        -3.88723064       3.68814610      -2.26480467
C        -3.53507132       4.63064580      -1.10890652
C        -2.41705245       5.61726340      -1.45818233
C        -2.19645791       6.69188981      -0.38744997
C        -1.72028976       6.12009170       0.94811274
C        -1.36730263       7.22348039       1.94447763
C        -0.89683942       6.64028237       3.26835908
C        -3.50582990       0.74948747      -1.16598451
C        -3.94007767      -0.20243087      -2.29110181
C        -2.80493044      -1.04725642      -2.87853064
C        -2.33245894      -2.16146568      -1.94238472
C        -1.00782849      -2.78361429      -2.39058308
C        -1.03399894      -3.49545535      -3.74532126
C        -2.01710127      -4.66272607      -3.85382739
C        -1.74904115      -5.77540954      -2.85186563
C         0.27760790       2.53824903       1.63683630
C        -0.91052932       2.69942215       2.60845058
O        -2.03568181       2.94820044       2.15773423
N        -0.70943887       2.52185989       3.97776784
C         0.60433909       2.54638822       4.62672012
C         1.27643454       1.17704494       4.70034171
C         2.63466076       1.27211928       5.39801159
C         3.34270388      -0.07885980       5.53130652
C         3.73824046      -0.75670435       4.21447144
C         4.71628616       0.07386891       3.37924430
C         5.16750417      -0.62937951       2.09803246
C         6.02269110      -1.86205556       2.34595528
C        -1.89006654       2.53230611       4.84417317
C        -2.85291324       1.34645814       4.66947889
C        -2.30672642       0.00797296       5.17729430
C        -1.66086172      -0.86646770       4.09660540
C        -2.69295648      -1.55416372       3.19668062
C        -2.06380321      -2.42300398       2.10346974
C        -1.31079953      -3.64057297       2.64015885
C        -0.80275907      -4.52054078       1.50778499
H         4.12997505      -6.61515108       2.23770934
H         2.52880165      -6.53514787       2.98665209
H         2.93734538      -5.43624813       1.66804079
H         2.65131276      -8.47637930       1.52658675
H         1.46457601      -7.34584472       0.89267106
H         4.33868329      -7.21826674      -0.14162440
H         3.32142807      -8.55505450      -0.62576437
H         3.20519975      -6.86493615      -2.32617945
H         1.63439600      -7.10518263      -1.58446812
H         1.92996005      -4.78220075      -2.00094745
H         1.91593758      -5.00500683      -0.26472910
H         4.51825651      -4.97751936      -0.38004903
H         4.34840078      -4.51186433      -2.06715285
H         3.31605647      -2.98449697       0.37681197
H         4.74005364      -2.58337829      -0.56622977
H         3.31251144      -2.15031033      -2.58268726
H         1.88125328      -2.56944542      -1.65823205
H         4.74329872      -0.23569188      -1.33933925
H         3.71362736       1.11545153      -0.93996686
H         3.85824368      -0.31166910      -3.64652598
H         4.48694925       1.27582472      -3.24630212
H         2.14314313       2.08428004      -2.81165840
H         1.52669117       0.49005980      -3.26395355
H         2.60723280       0.76146222      -5.53730030
H         3.18999838       2.34649846      -5.04434090
H         0.79468684       3.09770488      -4.71260497
H         1.27260024       2.73184275      -6.36737870
H        -0.37759527       0.92338494      -4.53127163
H         0.24008754       0.42149040      -6.10683815
H        -0.99087478       2.33866880      -7.18061250
H        -1.63869027       2.79096951      -5.60414062
H        -3.27256292       1.44522018      -6.88605813
H        -2.77144855       0.55875359      -5.43822285
H        -2.11202228       0.11319123      -7.02230233
H         2.40795029       1.17846809       0.95866115
H         1.63308218       1.62160837      -0.56917097
H        -0.85610926      -0.12532978      -0.17403043
H        -1.76674919       0.87849655       0.91842349
H        -3.11696963       2.10064708      -3.50119842
H        -1.89866362       3.21460407      -2.95564758
H        -4.11942065       4.28581043      -3.15514984
H        -4.81116952       3.15656710      -2.01017120
H        -4.43691857       5.19823985      -0.84777053
H        -3.26737033       4.04301116      -0.22492709
H        -2.66451904       6.12158022      -2.40039513
H        -1.47663376       5.08178726      -1.62521794
H        -3.12282339       7.25961776      -0.23804506
H        -1.44854329       7.40077220      -0.76374680
H        -2.50423745       5.49003990       1.38132615
H        -0.84183537       5.48699673       0.78121655
H        -2.24159616       7.86069512       2.12063826
H        -0.57735172       7.86120515       1.53126393
H        -0.00594247       6.01926432       3.12942115
H        -0.64593616       7.44306329       3.96857405
H        -1.67727097       6.02285845       3.72460406
H        -4.37497502       1.31673371      -0.81617607
H        -3.18890093       0.14889413      -0.31424441
H        -4.40110095       0.37437856      -3.10084880
H        -4.72627691      -0.86529814      -1.90901692
H        -3.16580911      -1.50161655      -3.80914920
H        -1.96384199      -0.40133927      -3.15213339
H        -2.18589257      -1.76707136      -0.93378792
H        -3.10964552      -2.92871479      -1.85473324
H        -0.66515459      -3.48059962      -1.61752069
H        -0.25196550      -1.99008175      -2.43741702
H        -0.02264524      -3.86604632      -3.95615112
H        -1.25939194      -2.77034217      -4.53625265
H        -3.04691893      -4.30719633      -3.74040783
H        -1.94418158      -5.08057202      -4.86525408
H        -2.41175800      -6.62449855      -3.04747222
H        -0.71547302      -6.12871667      -2.92335267
H        -1.93158200      -5.44347022      -1.82561781
H         1.21964336       2.71962015       2.15538145
H         0.20430423       3.32808494       0.88305299
H         0.48997996       2.96008718       5.63580986
H         1.24713673       3.25721784       4.09771743
H         1.39503987       0.76758267       3.69341844
H         0.63999694       0.48126946       5.25537600
H         2.48497807       1.67621396       6.40743086
H         3.27744526       1.98902998       4.87554897
H         4.24586294       0.06311474       6.13808134
H         2.69820662      -0.76434020       6.09570842
H         2.84563477      -0.98753078       3.62216739
H         4.19676591      -1.71919586       4.46826833
H         4.23789249       1.01561658       3.08734407
H         5.59365997       0.33491923       3.98304681
H         4.29231070      -0.90618898       1.50266718
H         5.74806965       0.08121707       1.49769717
H         5.44563804      -2.66349101       2.81609896
H         6.40934105      -2.24783130       1.39725708
H         6.87717436      -1.62597943       2.98781591
H        -2.43858810       3.45828355       4.62926853
H        -1.57984969       2.59234169       5.89354113
H        -3.19666837       1.26431958       3.63457737
H        -3.74462578       1.58082938       5.26586402
H        -3.13005169      -0.55771715       5.63200341
H        -1.58513030       0.18509128       5.98304155
H        -0.97194107      -0.27710392       3.48492528
H        -1.06279580      -1.63056795       4.60561391
H        -3.36559833      -2.16893011       3.80696947
H        -3.31572968      -0.79676447       2.70730295
H        -2.86491520      -2.76400879       1.43591433
H        -1.38689034      -1.81263124       1.49759125
H        -1.96941857      -4.23115008       3.28707873
H        -0.45470987      -3.32415024       3.24520758
H        -1.63046038      -4.88806852       0.89298442
H        -0.11447687      -3.96733576       0.86195073
H        -0.26783564      -5.38620214       1.91060176
