84
lig_158 free ligand  charge=0 uhf=0  ETKDGv3 + MMFF94s  smiles=Cc1cc(-c2cc(C)cc(-c3nnc4c(n3)C(C)(C)CCC4(C)C)n2)nc(-c2nnc3c(n2)C(C)(C)CCC3(C)C)c1
C         3.19541285       2.06487024       3.51646859
C         2.85873011       1.45218454       2.19089069
C         1.54048736       1.11979022       1.87599039
C         1.24973198       0.52121616       0.65067236
C        -0.13150517       0.15224951       0.25609679
C        -0.41914906      -0.44457988      -0.97150283
C        -1.73760180      -0.76516762      -1.29629446
C        -2.06274017      -1.43749354      -2.59513948
C        -2.73605581      -0.49743683      -0.35861764
C        -2.40524991       0.10121258       0.85941780
C        -3.43131746       0.41053604       1.88106010
N        -3.03936825       0.98578535       3.03744536
N        -3.96946780       1.28276488       3.98935231
C        -5.27152852       1.00481285       3.76339569
C        -5.63761966       0.39305420       2.57005308
N        -4.72026147       0.10280669       1.61183832
C        -7.08736555       0.06145146       2.23628184
C        -7.59194193       1.08568755       1.19883706
C        -7.18913814      -1.34881269       1.61648288
C        -7.98434650       0.08541524       3.49406988
C        -7.71111671       1.30453174       4.36761267
C        -6.25206544       1.33695738       4.87319595
C        -6.05866327       0.31796591       6.01503300
C        -5.97961505       2.75002465       5.43057509
N        -1.11466651       0.42287238       1.15641553
N         2.23143671       0.24280726      -0.24810587
C         3.52658633       0.54751327       0.05144824
C         4.54846196       0.21024039      -0.96696073
N         5.83818411       0.51114042      -0.69930354
N         6.80178302       0.21039832      -1.61361628
C         6.45791473      -0.39091236      -2.77450120
C         5.11964531      -0.66796997      -3.02615791
N         4.15712584      -0.38059401      -2.11590075
C         4.65320929      -1.35681415      -4.30249809
C         3.38914338      -0.66608068      -4.85814386
C         4.29752088      -2.81888656      -3.96212211
C         5.73531386      -1.31020686      -5.40431820
C         7.11711445      -1.66021341      -4.86333388
C         7.57337046      -0.67609088      -3.76359439
C         8.01948839       0.65980228      -4.39274670
C         8.78571425      -1.30444002      -3.04463052
C         3.86064593       1.14778322       1.26752788
H         4.08085283       2.70439923       3.43765023
H         2.37336866       2.69214647       3.87705109
H         3.39085333       1.27955839       4.25308076
H         0.73942222       1.32677336       2.58231776
H         0.38568560      -0.65720010      -1.67184363
H        -2.00367090      -2.52406987      -2.47947993
H        -3.07058592      -1.17162946      -2.93097065
H        -1.36636175      -1.12676681      -3.38115103
H        -3.76991051      -0.75388105      -0.57620411
H        -8.64599715       0.91317177       0.95350380
H        -7.49531455       2.11596390       1.55846421
H        -7.02301156       1.02093930       0.26337416
H        -8.23304165      -1.61467690       1.41349844
H        -6.64484746      -1.42000078       0.66749472
H        -6.77379300      -2.10870868       2.28905489
H        -9.04287019       0.07629928       3.20417601
H        -7.82895938      -0.82372367       4.08871427
H        -7.93544215       2.21322680       3.79470967
H        -8.40651975       1.30687578       5.21671363
H        -5.05217649       0.38586829       6.44551069
H        -6.77422579       0.49303399       6.82642471
H        -6.18780067      -0.71403425       5.67078968
H        -6.71060163       3.01579348       6.20300966
H        -4.98426612       2.82661439       5.88361398
H        -6.03726456       3.50693533       4.63929395
H         2.54475720      -0.73443913      -4.16213572
H         3.57003128       0.39846636      -5.04870216
H         3.07171009      -1.12664984      -5.80086611
H         3.99257794      -3.37037025      -4.85870390
H         3.46800004      -2.87255805      -3.24655915
H         5.14120002      -3.35233482      -3.51071219
H         5.77092376      -0.31235196      -5.85962589
H         5.47778209      -2.00125340      -6.21715793
H         7.09952345      -2.68553894      -4.47259954
H         7.83998234      -1.66712819      -5.68915589
H         7.18802430       1.18361414      -4.87699824
H         8.79995115       0.50101010      -5.14553799
H         8.42747599       1.34151556      -3.63661698
H         9.21744396      -0.62529253      -2.30019237
H         9.58000935      -1.55380707      -3.75774904
H         8.50330919      -2.22564452      -2.52118926
H         4.89753939       1.37967911       1.49829464
