36
lig_160 free ligand  charge=0 uhf=0  ETKDGv3 + MMFF94s  smiles=Cc1cc(C)n(-c2cncc(-n3nc(C)cc3C)n2)n1
C        -5.91794443      -0.29619550       1.19889874
C        -4.53624834       0.05392965       0.79141379
C        -4.08816343       1.22636652       0.16354738
C        -2.72817374       1.06170169       0.00085755
C        -1.75443972       1.99418206      -0.60739038
N        -2.41343143      -0.18464923       0.52884810
C        -1.14306339      -0.84478575       0.61393598
C        -1.11832562      -2.10932818       1.20144894
N         0.01491567      -2.83748192       1.34251492
C         1.14125327      -2.25224459       0.87007280
C         1.15270840      -0.98998598       0.27726407
N         2.41697927      -0.49014243      -0.17949624
N         3.54532463      -1.24607082      -0.02462976
C         4.53870745      -0.52005656      -0.53948822
C         5.92501042      -1.04529371      -0.53804974
C         4.07798792       0.70994850      -1.03387764
C         2.71881992       0.71729188      -0.79773325
C         1.73461825       1.77371220      -1.11860661
N         0.00136063      -0.25875867       0.13794202
N        -3.53457328      -0.79824802       1.01373433
H        -5.96878453      -0.46399622       2.27953024
H        -6.24918349      -1.20720166       0.69011919
H        -6.61915922       0.50599501       0.94750459
H        -4.67527592       2.08440757      -0.13463615
H        -1.27976652       1.54148157      -1.48142042
H        -2.25315225       2.90840294      -0.94758693
H        -0.99719859       2.29225300       0.12194097
H        -2.01153191      -2.59379818       1.58563559
H         2.04014852      -2.85006006       0.99144644
H         5.98168713      -1.98122201      -1.10314894
H         6.61825919      -0.33162210      -0.99465723
H         6.26201027      -1.23693376       0.48577206
H         4.65646395       1.49431094      -1.50290212
H         1.26036227       2.14943661      -0.20860925
H         2.22403015       2.62555806      -1.60345326
H         0.97776849       1.39909717      -1.81216274
