32
lig_171 free ligand  charge=0 uhf=0  ETKDGv3 + MMFF94s  smiles=O=c1c(O)c(-c2ccc(O)c(O)c2)oc2cc(O)cc(O)c12
O        -1.89643692      -2.81051491       1.30714823
C        -1.46727817      -1.76598882       0.82184489
C        -0.01579671      -1.58409255       0.59045672
O         0.81546169      -2.62667189       0.95565642
C         0.40971456      -0.42242837       0.06013505
C         1.83447722      -0.12421254      -0.20274401
C         2.66740630      -1.03821290      -0.86811031
C         4.00668689      -0.73162958      -1.13029138
C         4.52095906       0.49938203      -0.73458106
O         5.82663955       0.81562120      -0.98306818
C         3.70438001       1.42180291      -0.08265326
O         4.22593016       2.62804698       0.29489216
C         2.36822553       1.11744932       0.18115459
O        -0.43332178       0.63063899      -0.27609621
C        -1.78344806       0.48842220      -0.08159227
C        -2.59384059       1.56351350      -0.44445579
C        -3.97194598       1.47465453      -0.26636485
O        -4.72706130       2.54864637      -0.63376253
C        -4.55509515       0.32900778       0.26855109
C        -3.74046518      -0.74172968       0.62913806
O        -4.36517875      -1.84217637       1.15062987
C        -2.35509128      -0.66206958       0.45370615
H         0.22415956      -3.31103554       1.33394349
H         2.27947918      -2.00256222      -1.19027820
H         4.62557548      -1.46178663      -1.64198000
H         6.25560130       0.06620062      -1.42301332
H         3.53647780       3.15111814       0.73096179
H         1.73647421       1.83986983       0.69012943
H        -2.15804652       2.46584857      -0.86475262
H        -5.66340055       2.35000578      -0.46213849
H        -5.62853453       0.25201970       0.41088339
H        -3.68270705      -2.51713689       1.36392465
