55
lig_172 free ligand  charge=0 uhf=0  ETKDGv3 + MMFF94s  smiles=S=P(COCP(=S)(c1ccccc1)c1ccccc1)(c1ccccc1)c1ccccc1
S        -1.09646533      -2.08037423       1.18271926
P         0.84494988      -1.77394886       0.88040978
C         1.18099530      -1.49059185      -0.92006923
O         0.66773454      -0.22116719      -1.32214589
C        -0.55258336      -0.29254803      -2.05922035
P        -1.02017861       1.45917590      -2.49498191
S         0.16609834       2.11639475      -3.94266275
C        -0.96319297       2.31787734      -0.89147045
C        -1.67652207       1.81430080       0.20862096
C        -1.61462660       2.44856555       1.44994504
C        -0.84900983       3.60061408       1.60677717
C        -0.14640044       4.12040760       0.52258932
C        -0.20179682       3.48344137      -0.71864565
C        -2.76942042       1.36378943      -2.96988502
C        -3.25082674       0.28174884      -3.72317701
C        -4.59572677       0.21425337      -4.09179013
C        -5.47269991       1.23178464      -3.72403374
C        -5.00464833       2.32328428      -2.99698198
C        -3.66038991       2.39326706      -2.62818390
C         1.54520971      -0.40386177       1.84155264
C         1.47117101      -0.47064660       3.24496558
C         1.99675743       0.54752917       4.04125139
C         2.60377771       1.64988095       3.44748186
C         2.68472159       1.73239434       2.05987927
C         2.16091837       0.71236034       1.26144115
C         1.94630340      -3.19316131       1.22136380
C         3.33530541      -3.00557272       1.32148953
C         4.18506591      -4.08648661       1.56195744
C         3.66037079      -5.36862810       1.70125808
C         2.28635080      -5.57147478       1.60023416
C         1.43391320      -4.49199028       1.36002859
H         0.77607466      -2.31203589      -1.52170393
H         2.26539142      -1.46194752      -1.06332200
H        -1.34867202      -0.73468366      -1.45888795
H        -0.40981251      -0.87081457      -2.97772134
H        -2.28503505       0.91764148       0.11276984
H        -2.15906044       2.03702066       2.29649983
H        -0.79629010       4.08985897       2.57568037
H         0.45234560       5.01946729       0.64416463
H         0.36312679       3.90471188      -1.54721405
H        -2.58281402      -0.51238023      -4.04629692
H        -4.95877178      -0.62858468      -4.67499180
H        -6.51896387       1.18033926      -4.01443488
H        -5.68528508       3.12530463      -2.72185269
H        -3.31398414       3.26400737      -2.07489409
H         0.99451381      -1.32369778       3.72550302
H         1.92692055       0.48153319       5.12399211
H         3.00808853       2.44782286       4.06458194
H         3.14783553       2.59880348       1.59366660
H         2.23709978       0.82233812       0.18390150
H         3.77154271      -2.01407483       1.21816013
H         5.25774917      -3.92749372       1.64344631
H         4.32196996      -6.21016581       1.89095359
H         1.87574093      -6.57239990       1.71098613
H         0.36513427      -4.68118812       1.28629664
