55
lig_039 free ligand  charge=0 uhf=0  ETKDGv3 + MMFF94s  smiles=CCCCCCCCCCCCNC(=O)c1cc(OC)ccn1
C        -7.10490421      -0.88773846       1.69487580
C        -7.71363234      -0.71736389       0.31096311
C        -7.18945052       0.50773846      -0.44418185
C        -6.03119968       0.22405627      -1.40752817
C        -4.72209868      -0.26527293      -0.78481212
C        -4.08077848       0.75488546       0.15854098
C        -2.79887741       0.24498116       0.82600179
C        -1.66199131      -0.16335411      -0.11720530
C        -1.17251756       0.97848614      -1.01066085
C        -0.03364945       0.57017892      -1.95154354
C         1.24812386       0.07520818      -1.27652436
C         1.87341335       1.10038091      -0.33361136
N         3.12624119       0.62328589       0.20427167
C         4.33427710       0.78597235      -0.44052231
O         4.46632603       1.34952504      -1.52048252
C         5.50442540       0.20397806       0.29434328
C         6.77712235       0.30132287      -0.24595439
C         7.83842850      -0.25121154       0.46416138
O         9.06082009      -0.11495475      -0.13294876
C        10.18116513      -0.66263802       0.55128844
C         7.58839571      -0.87730726       1.68178118
C         6.28064972      -0.92621804       2.14299082
N         5.22717658      -0.40278396       1.48386221
H        -7.57608415      -1.73178965       2.20903012
H        -6.03210563      -1.08578097       1.65080802
H        -7.26369051       0.00707278       2.30527977
H        -8.79643761      -0.59930739       0.44372456
H        -7.56951496      -1.63004939      -0.27802184
H        -6.93293935       1.31597401       0.24925254
H        -8.01556349       0.89338439      -1.05659047
H        -6.36195089      -0.52071229      -2.14265870
H        -5.82673391       1.14011001      -1.97644351
H        -4.88181086      -1.21730146      -0.26845527
H        -4.03009276      -0.47783372      -1.60833623
H        -4.78379625       1.01480575       0.95760907
H        -3.87871717       1.68558491      -0.38351362
H        -3.04999194      -0.61768939       1.45602817
H        -2.43072210       1.02376131       1.50572809
H        -1.97149868      -1.01392216      -0.73481283
H        -0.83455998      -0.52096182       0.50642117
H        -0.86383772       1.82926033      -0.39279011
H        -1.99939434       1.33480346      -1.63570411
H        -0.39571369      -0.21560992      -2.62630822
H         0.21293834       1.43028276      -2.58675784
H         1.05745226      -0.85940506      -0.73596982
H         1.96947455      -0.18083492      -2.06335493
H         1.22048622       1.29616184       0.52215926
H         2.04855444       2.04626533      -0.85774344
H         3.15443024       0.12862750       1.09241957
H         6.94036259       0.79571520      -1.19807535
H        10.08258734      -1.74738088       0.66360039
H        11.07102535      -0.46949811      -0.05548144
H        10.32660686      -0.17636205       1.52153604
H         8.37035656      -1.32604438       2.28125876
H         6.04341585      -1.40605724       3.08905708
