77
lig_108 free ligand  charge=0 uhf=0  ETKDGv3 + MMFF94s  smiles=CCCCCCCCn1cc(-c2cc(CC(=O)O)cc(-c3cn(CCCCCCCC)nn3)n2)nn1
C        10.87064490      -0.90201632      -1.71658387
C         9.86511178      -1.87312282      -2.31147692
C         8.40491866      -1.42751486      -2.17857997
C         7.89801403      -1.34785881      -0.73295240
C         8.00278450       0.04701540      -0.10302194
C         6.71407755       0.87507002      -0.18719958
C         6.30627624       1.24494655      -1.61543688
C         5.12173138       2.21270058      -1.66036624
N         3.88503336       1.63770191      -1.18135600
C         3.23899494       1.89178411      -0.00814372
C         2.10720837       1.10474439      -0.07747039
C         1.05801454       0.99401390       0.92278957
C         1.31217245       1.23576053       2.27257961
C         0.27172704       1.11313811       3.19959303
C         0.50479155       1.38454598       4.66710139
C         0.31412004       0.18439398       5.56433845
O        -0.27004406      -0.85629987       5.31445223
O         0.84654713       0.38309605       6.78914736
C        -0.99285537       0.75036322       2.72589623
C        -1.17051469       0.51725646       1.36411843
C        -2.46321968       0.12478085       0.83374861
C        -3.39874541      -0.67346450       1.45899169
N        -4.41859389      -0.74479273       0.55789771
C        -5.65018970      -1.49563877       0.66793390
C        -6.68068600      -0.85307848       1.60060371
C        -7.25047847       0.48744351       1.11912712
C        -8.54763920       0.38698802       0.30852008
C        -8.40481493      -0.34816660      -1.02367946
C        -9.67926738      -0.22417786      -1.86362517
C        -9.63529602      -1.04394122      -3.15504731
C        -8.57971556      -0.56804902      -4.14113038
N        -4.15116357      -0.03486722      -0.54912881
N        -2.94466538       0.49814184      -0.39583480
N        -0.16564510       0.64131619       0.46744311
N         2.11424478       0.42221111      -1.26900098
N         3.21535977       0.75190427      -1.93308886
H        10.74638138       0.10061578      -2.13737573
H        11.88989819      -1.23613328      -1.93601941
H        10.77147956      -0.84096431      -0.62894129
H        10.09109958      -1.99747793      -3.37749476
H         9.99525916      -2.85814793      -1.84783527
H         8.26077071      -0.47813555      -2.70446429
H         7.79331724      -2.16939014      -2.70795360
H         8.45759937      -2.06183995      -0.11598849
H         6.85274121      -1.67959245      -0.70210387
H         8.83468076       0.61706134      -0.52906374
H         8.23146533      -0.08275867       0.96261934
H         5.90298553       0.32471621       0.30425183
H         6.86390948       1.79503975       0.39170810
H         7.15653677       1.72016889      -2.11919047
H         6.05887392       0.33854396      -2.17946553
H         5.33000184       3.10972983      -1.06621097
H         4.94202652       2.53779521      -2.69185372
H         3.61648881       2.58514544       0.72714801
H         2.31030412       1.50504205       2.60312396
H         1.52826508       1.75191623       4.81033997
H        -0.18039875       2.17412480       4.99660829
H         0.64959499      -0.44748482       7.27273604
H        -1.82749763       0.65054910       3.41369764
H        -3.41658362      -1.18735177       2.40811312
H        -6.04328399      -1.64732149      -0.34071113
H        -5.37532193      -2.48393539       1.05572698
H        -6.20477147      -0.68727743       2.57607123
H        -7.49891174      -1.56168881       1.77597995
H        -6.50467414       1.06107805       0.55908200
H        -7.48232134       1.08574903       2.01021794
H        -9.31960708      -0.10232594       0.91532656
H        -8.90318854       1.40765241       0.11820984
H        -7.55208404       0.06333736      -1.57446048
H        -8.20620102      -1.40927994      -0.83971845
H        -9.86296542       0.83000841      -2.10450957
H       -10.53550600      -0.56639919      -1.26913077
H       -10.61730623      -0.98170595      -3.63903374
H        -9.46453782      -2.10103253      -2.92036051
H        -7.56883456      -0.72354946      -3.75310521
H        -8.66329226      -1.12673846      -5.07891343
H        -8.70463056       0.49535689      -4.36821493
