137
lig_036 free ligand  charge=0 uhf=0  ETKDGv3+randomCoords + MMFF94s  smiles=CCCCCCCCCCCCN(CCCCCCCCCCCC)C(=O)COCC(=O)N(CCCCCCCC)CCCCCCCC
C        -0.55060324       2.51657509       5.98103924
C        -0.68012611       1.54844508       4.81600677
C         0.66008905       0.98866414       4.33545989
C         1.46490051       0.20260582       5.37325268
C         0.72592697      -1.02781346       5.90633149
C         1.64880157      -1.88436639       6.77725419
C         0.94154965      -3.06374496       7.45181617
C         0.36626232      -4.14032661       6.52374878
C         1.33224566      -5.27565288       6.16251814
C         2.51175007      -4.92040210       5.25676976
C         2.08862676      -4.40822028       3.87913743
C         3.30677434      -4.08608297       3.00833706
N         2.91650629      -3.69415837       1.64891752
C         2.79852983      -4.76321031       0.64677846
C         4.14432994      -5.34965646       0.19477792
C         5.01916687      -4.39597728      -0.62341061
C         4.51903293      -4.21624539      -2.05993971
C         5.39850257      -3.22722665      -2.82986773
C         4.89424567      -2.95014987      -4.24963001
C         3.62038535      -2.10008225      -4.26895889
C         3.18174978      -1.77545265      -5.69853989
C         1.98156809      -0.82343803      -5.76095671
C         0.68431296      -1.44527371      -5.23617640
C        -0.50773232      -0.48557165      -5.27576385
C        -0.93336129      -0.10018141      -6.68383394
C         2.56987256      -2.35260726       1.44503295
O         2.61742571      -1.52893623       2.36223853
C         2.10898396      -1.94455391       0.03534596
O         1.84915991      -0.55281086      -0.09535251
C         1.30404952      -0.22702925      -1.36121623
C         1.13640796       1.27125718      -1.65268251
O         1.46055260       1.69234934      -2.77029033
N         0.58112681       2.11348536      -0.69059832
C         0.11130183       1.69598120       0.63701834
C        -1.06119155       0.70570321       0.67118803
C        -2.29745159       1.17089893      -0.09762428
C        -3.42103540       0.13418337      -0.02194498
C        -4.73308316       0.61600911      -0.64866492
C        -4.66702490       0.99266790      -2.13163114
C        -4.23709853      -0.16256882      -3.03533760
C        -4.31295469       0.22814917      -4.50335500
C         0.63417774       3.55598216      -0.96353328
C        -0.63680578       4.09560290      -1.62641030
C        -1.57025384       4.77944913      -0.62336469
C        -2.96188298       5.07914076      -1.18979292
C        -2.94702331       6.07772444      -2.34944526
C        -4.33863151       6.35483208      -2.92794832
C        -5.26804662       7.08685322      -1.95915017
C        -6.59030015       7.44227918      -2.62216856
H        -0.19255354       2.01226466       6.88335456
H         0.14061364       3.33049942       5.74068853
H        -1.52541292       2.95752339       6.21296949
H        -1.15352209       2.07415363       3.97778084
H        -1.35821475       0.73301505       5.09036398
H         1.28017837       1.81602342       3.96854381
H         0.47363909       0.33731530       3.47344493
H         2.40182821      -0.11756160       4.90032930
H         1.74950674       0.85590731       6.20595935
H        -0.14194250      -0.71441642       6.49724825
H         0.35192180      -1.61438393       5.06118947
H         2.06930123      -1.25110569       7.56916153
H         2.49754675      -2.22851213       6.18148957
H         1.63001265      -3.52848501       8.16812127
H         0.11537444      -2.65637456       8.04940778
H        -0.08151509      -3.70660460       5.62582385
H        -0.46743344      -4.61009004       7.06369118
H         1.72511832      -5.71479142       7.08820759
H         0.75246036      -6.07045366       5.67538367
H         3.11514434      -5.82745859       5.12108859
H         3.16825267      -4.19971031       5.75246067
H         1.47082095      -3.51015944       3.97592643
H         1.46662212      -5.16474331       3.38586147
H         3.87668341      -3.26952569       3.46772626
H         3.97704973      -4.94907081       2.95781147
H         2.23066105      -4.42431645      -0.22113926
H         2.20113776      -5.56128436       1.10348985
H         4.71975770      -5.67684232       1.06741400
H         3.95069849      -6.25345259      -0.39630210
H         5.09498454      -3.42599865      -0.11920249
H         6.03529264      -4.80868504      -0.66076403
H         3.48176089      -3.87433331      -2.05302480
H         4.52723873      -5.18503886      -2.57429014
H         5.47413849      -2.28249495      -2.27775459
H         6.41406174      -3.63700254      -2.89562000
H         5.68325170      -2.41860634      -4.79593912
H         4.72385712      -3.89625778      -4.77706984
H         2.81647771      -2.63195541      -3.75221895
H         3.79990028      -1.16654073      -3.72259066
H         4.01795452      -1.30456871      -6.23022891
H         2.94693070      -2.70240960      -6.23549833
H         1.84700136      -0.52867416      -6.80781427
H         2.20894001       0.09117702      -5.20045465
H         0.44826415      -2.34825605      -5.81204359
H         0.81880812      -1.76027179      -4.19590076
H        -0.27933024       0.42015539      -4.70274572
H        -1.35530320      -0.96964274      -4.77661487
H        -1.13963606      -0.98844211      -7.28911660
H        -1.84512380       0.50446728      -6.64877177
H        -0.16492737       0.49275104      -7.18800107
H         1.19178418      -2.49946094      -0.19066661
H         2.89768267      -2.21092017      -0.67114188
H         1.97593449      -0.61661007      -2.13512837
H         0.33089209      -0.70963081      -1.50089076
H         0.96661762       1.28026572       1.17792897
H        -0.18740353       2.59028283       1.19619036
H        -0.75688044      -0.27606829       0.30272620
H        -1.33751201       0.54970377       1.72157791
H        -2.65436525       2.11632604       0.32210549
H        -2.03285158       1.34377393      -1.14487804
H        -3.09769804      -0.80007415      -0.49517856
H        -3.61782425      -0.10645093       1.03047450
H        -5.09346420       1.48736333      -0.08749042
H        -5.48850845      -0.16847707      -0.51555363
H        -3.99404016       1.84524214      -2.27525984
H        -5.66381195       1.33515482      -2.43739523
H        -3.20955032      -0.46395242      -2.80515299
H        -4.88073568      -1.03240414      -2.86124692
H        -4.00395132      -0.61024241      -5.13532190
H        -5.33400344       0.50544553      -4.78411834
H        -3.65502823       1.07663119      -4.71681779
H         1.47691353       3.74945000      -1.63865566
H         0.87425630       4.09071836      -0.03694562
H        -0.33678240       4.84187822      -2.37209277
H        -1.16152124       3.30076130      -2.16787556
H        -1.10847318       5.71167664      -0.27488009
H        -1.69340209       4.14959246       0.26271885
H        -3.43279895       4.14385520      -1.51370154
H        -3.57411522       5.47406673      -0.37142809
H        -2.48897593       7.01909598      -2.02308279
H        -2.32444705       5.68636281      -3.16197618
H        -4.80020621       5.41113178      -3.24358258
H        -4.21595108       6.96341961      -3.83268346
H        -5.47411325       6.46353280      -1.08279063
H        -4.78703028       8.00475751      -1.60226724
H        -6.43374740       8.10015623      -3.48299457
H        -7.24236700       7.96137379      -1.91272181
H        -7.11039796       6.54267928      -2.96654528
