62
lig_117 free ligand  charge=0 uhf=0  ETKDGv3 + MMFF94s  smiles=CCCCCCN(CCCCCC)C(=O)c1ccc2ccc3cccnc3c2n1
C         3.70161126      -4.02148713      -0.45174900
C         2.59438764      -4.47192506       0.48816337
C         2.77588700      -3.98463254       1.92789634
C         2.84862514      -2.46589718       2.11255065
C         1.59400245      -1.73387412       1.63412299
C         1.68418643      -0.23333105       1.92497959
N         0.48525759       0.48120315       1.47447337
C         0.26000318       0.66292426       0.02965641
C         1.49594318       0.99632094      -0.81683983
C         2.07669257       2.37204815      -0.48401505
C         3.40998325       2.67461184      -1.17723973
C         3.33934482       2.74751311      -2.70516335
C         3.72744148       1.44415388      -3.38866401
C        -0.48697480       0.77324721       2.45193444
O        -0.23175658       0.73232843       3.65941502
C        -1.89210063       1.14029352       2.06880386
C        -2.63629133       1.92488805       2.93345122
C        -3.95075384       2.21197032       2.59072055
C        -4.49030150       1.70614942       1.40098081
C        -5.81218983       1.99512556       1.05094402
C        -6.34211814       1.49451775      -0.12968283
C        -5.55327792       0.70393008      -0.97099297
C        -6.08431829       0.20032814      -2.16689363
C        -5.29952834      -0.58146019      -3.00190278
C        -4.00245859      -0.83309572      -2.61188377
N        -3.45947630      -0.36300103      -1.46927479
C        -4.21178733       0.39977217      -0.63430711
C        -3.67818635       0.90120123       0.56568279
N        -2.40089578       0.62484478       0.92355118
H         4.68498889      -4.31089689      -0.06810311
H         3.68992276      -2.93685822      -0.59442829
H         3.57148155      -4.48551640      -1.43473045
H         2.56985722      -5.56845096       0.49743896
H         1.62524213      -4.14678345       0.09438504
H         3.69339980      -4.42580132       2.33716923
H         1.94964144      -4.37721377       2.53365093
H         3.73053350      -2.06718169       1.59799371
H         2.99751245      -2.26124581       3.18031812
H         0.70827768      -2.15127314       2.12860310
H         1.45915735      -1.88900812       0.55840519
H         1.82145633      -0.09150215       3.00276466
H         2.56786791       0.20691631       1.45446930
H        -0.46032102       1.47127219      -0.12551822
H        -0.18786035      -0.26615080      -0.34149961
H         1.18147516       0.99084608      -1.86703359
H         2.26099667       0.21958388      -0.71594024
H         2.23769179       2.45546810       0.59723369
H         1.34645778       3.14766885      -0.74662552
H         3.74306427       3.65444548      -0.81090073
H         4.17145694       1.95345722      -0.85711490
H         4.04230977       3.51775869      -3.04623148
H         2.34382609       3.06441355      -3.03550611
H         3.05223667       0.62604176      -3.12843594
H         4.74465405       1.14732968      -3.11312790
H         3.69796105       1.56833121      -4.47600626
H        -2.20574481       2.29798889       3.85723045
H        -4.54808982       2.82697166       3.25991149
H        -6.43816271       2.61064436       1.69382471
H        -7.37297140       1.72725300      -0.38854822
H        -7.11122429       0.41368628      -2.45407483
H        -5.68963661      -0.98241264      -3.93012986
H        -3.33840873      -1.43844978      -3.22219671
