119
lig_092 free ligand  charge=0 uhf=0  ETKDGv3 + MMFF94s  smiles=CCCCCCCCN(CCCCCCCC)C(=O)[C@H](C)O[C@@H](C)C(=O)N(CCCCCCCC)CCCCCCCC
C        -7.18659771      -0.18804330       2.13451359
C        -7.06530252       0.98712162       3.09277579
C        -6.13831151       2.09417343       2.58440574
C        -4.67784485       1.65083626       2.47193804
C        -3.72249276       2.79762724       2.12731675
C        -3.98975612       3.51043513       0.79838406
C        -4.03449628       2.60758458      -0.43739599
C        -2.74738919       1.80088882      -0.64741864
N        -2.70141497       1.15455642      -1.96483532
C        -3.63232542       0.04565265      -2.19235424
C        -2.98934812      -1.34019379      -2.31764772
C        -2.46931265      -1.93098181      -1.00487193
C        -0.99264518      -1.62727984      -0.74295514
C        -0.48071593      -2.43516583       0.45411992
C         1.01128866      -2.20815710       0.68613636
C         1.54475217      -3.07593321       1.82457910
C         3.02071281      -2.81152839       2.07760378
C        -1.92042413       1.56291862      -3.04989810
O        -1.95572703       0.94122249      -4.11833381
C        -0.98610548       2.79372938      -2.90501380
C        -1.77830990       4.06613790      -3.17465190
O         0.07992712       2.77624485      -3.86396616
C         1.16381332       1.92377722      -3.47323939
C         2.02164547       1.71198020      -4.71197199
C         2.02080140       2.56987193      -2.35282206
O         2.04425545       3.79996736      -2.22688391
N         2.70983874       1.75311310      -1.45563101
C         2.83894714       0.29555644      -1.54364406
C         4.20491249      -0.14165050      -2.08090673
C         4.36024763      -1.66580736      -2.13761324
C         3.43948785      -2.32754274      -3.16339783
C         3.73891519      -3.81081830      -3.40996543
C         3.45036044      -4.73044171      -2.21813256
C         4.68843267      -5.02708648      -1.36988188
C         4.36223318      -5.98072000      -0.23028566
C         3.38862921       2.41228582      -0.33386009
C         2.42508462       2.92400694       0.74705379
C         1.63282779       1.80584593       1.42884061
C         0.71735572       2.36108762       2.52245285
C        -0.14128370       1.28686948       3.19724499
C         0.62614736       0.19890617       3.95247777
C         1.48018495       0.73475891       5.10079964
C         2.13424322      -0.39861469       5.87673589
H        -7.49796936       0.14616114       1.13979243
H        -6.23959721      -0.72703061       2.03807106
H        -7.93463588      -0.89724797       2.50325963
H        -6.71918688       0.62817898       4.06896779
H        -8.06323953       1.41430879       3.24800815
H        -6.20316067       2.94222777       3.27708738
H        -6.50349424       2.44814024       1.61371472
H        -4.57863160       0.85387070       1.72778529
H        -4.35944291       1.22023614       3.42959706
H        -2.69931882       2.40687175       2.12297328
H        -3.75588756       3.54290904       2.93195613
H        -3.21021232       4.26917191       0.65314176
H        -4.93540023       4.06156088       0.86383794
H        -4.22523305       3.23600884      -1.31475144
H        -4.89654895       1.93510611      -0.36892043
H        -2.66651128       1.00932765       0.10545097
H        -1.88528473       2.45229979      -0.50574518
H        -4.16890641       0.26031434      -3.12553852
H        -4.38834093       0.02634754      -1.40025855
H        -3.77597227      -2.01355415      -2.68373749
H        -2.20352114      -1.35230298      -3.08012296
H        -3.08338551      -1.60158845      -0.15854107
H        -2.58540545      -3.02103508      -1.06644177
H        -0.40087656      -1.88429560      -1.63007297
H        -0.84873857      -0.55759896      -0.55837503
H        -0.66103396      -3.50294261       0.27926711
H        -1.04154689      -2.15527771       1.35421544
H         1.56626514      -2.43204227      -0.23224730
H         1.18107278      -1.15274440       0.91940820
H         0.98037055      -2.87787979       2.74300486
H         1.40539042      -4.13554852       1.58084245
H         3.38415243      -3.44245335       2.89462413
H         3.19198551      -1.76615651       2.35331085
H         3.61709355      -3.03177969       1.18704597
H        -0.55376775       2.84026740      -1.90419848
H        -1.11610267       4.93886782      -3.16717836
H        -2.56322907       4.22565894      -2.43358917
H        -2.24739291       4.03203049      -4.16463135
H         0.74200539       0.96994815      -3.15154904
H         1.41361146       1.32765024      -5.53816058
H         2.45718934       2.65837814      -5.05234151
H         2.83749039       1.01030169      -4.52903877
H         2.04734135      -0.11872076      -2.16451676
H         2.69424636      -0.10952447      -0.53776957
H         4.99648198       0.25622869      -1.43463777
H         4.38259527       0.28855552      -3.07215272
H         4.16819687      -2.07687871      -1.14113752
H         5.40286970      -1.89535796      -2.38842876
H         3.53663348      -1.80027501      -4.12074029
H         2.39300303      -2.22497738      -2.85444864
H         3.09325926      -4.12996170      -4.23865400
H         4.77010643      -3.93648872      -3.76042455
H         2.64936701      -4.31527331      -1.59559974
H         3.07568082      -5.68484290      -2.61044909
H         5.10441638      -4.10651792      -0.95163985
H         5.46792833      -5.47569252      -1.99681852
H         5.25719091      -6.17521584       0.36895807
H         3.99566555      -6.93850267      -0.61321794
H         3.59672201      -5.55922937       0.42852141
H         3.95695817       3.26208246      -0.73107091
H         4.11522048       1.72460699       0.11265021
H         1.72563548       3.65134087       0.31938998
H         3.01227614       3.46020833       1.50278752
H         1.01925664       1.28121443       0.68784426
H         2.33469407       1.08020567       1.85369025
H         1.30952839       2.89838797       3.27147492
H         0.04215789       3.10226598       2.07586620
H        -0.76654959       0.80290527       2.43632734
H        -0.82948728       1.78097226       3.89432083
H        -0.10434205      -0.51609247       4.35170257
H         1.25769627      -0.36361040       3.25886813
H         2.26652185       1.39272719       4.71595206
H         0.86008569       1.32788306       5.78255685
H         2.74524111       0.00290495       6.69119047
H         1.38064067      -1.06209134       6.31285277
H         2.78286855      -0.99509347       5.22703008
