95
lig_007 free ligand  charge=0 uhf=0  ETKDGv3 + MMFF94s  smiles=CC(C)CCCC(C)CCCCN(C)C(=O)COCC(=O)N(C)CCCCC(C)CCCC(C)C
C       -10.91554765       0.51814712      -1.12656006
C        -9.72837924       0.46289611      -2.08839472
C       -10.22574882       0.58869750      -3.53142492
C        -8.68671793       1.56068046      -1.80141139
C        -8.07631824       1.55888354      -0.39400304
C        -7.33568532       0.26123933      -0.05290099
C        -6.65489986       0.29711555       1.32889145
C        -6.17057639      -1.10303419       1.71893089
C        -5.55297902       1.36848125       1.49126932
C        -4.53829201       1.56658552       0.35599566
C        -3.58852185       0.40805401       0.04898312
C        -2.68823623      -0.03334474       1.20698283
N        -1.66979286       0.95400095       1.57855781
C        -1.90570755       1.69756959       2.80810131
C        -0.46995134       1.16121180       0.89869777
O         0.38024783       1.95305444       1.31905790
C        -0.22007382       0.38807338      -0.42012727
O         1.11557977       0.15933446      -0.84832960
C         1.97337468      -0.39324340       0.13777455
C         1.58557623      -1.69703609       0.88342086
O         0.48070017      -2.22092836       0.72058880
N         2.53434744      -2.24463074       1.74950095
C         2.21521345      -3.48041633       2.44983092
C         3.88203244      -1.70750255       1.95280250
C         4.90489566      -2.36650758       1.02361062
C         6.27464263      -1.69983605       1.15564859
C         7.37360899      -2.37291881       0.32614603
C         7.12889692      -2.44228306      -1.19193623
C         8.26005926      -3.23549089      -1.86004109
C         6.89345951      -1.08408847      -1.89080514
C         8.06237670      -0.08803621      -1.91009948
C         8.11918393       0.91612670      -0.75188628
C         6.92176134       1.88037323      -0.63037938
C         7.11175103       2.78347731       0.59202412
C         6.73074687       2.73856626      -1.88134215
H       -11.67073031      -0.22723540      -1.39870730
H       -11.39327169       1.50357023      -1.14178540
H       -10.60608381       0.30414438      -0.09911093
H        -9.25250765      -0.52011984      -1.99321070
H       -10.72743286       1.54816675      -3.69755863
H        -9.39238692       0.51425217      -4.23808771
H       -10.93594901      -0.21039820      -3.76929790
H        -9.14556574       2.54396373      -1.96930040
H        -7.87123352       1.47611176      -2.53164145
H        -7.38625177       2.40792155      -0.33672192
H        -8.85405960       1.74920869       0.35419855
H        -6.60137778       0.03249090      -0.83377590
H        -8.05564291      -0.56601323      -0.05645286
H        -7.43117570       0.55094085       2.06534456
H        -7.02170603      -1.78820047       1.80388139
H        -5.48745984      -1.52989936       0.98226581
H        -5.66667769      -1.08864191       2.69083045
H        -5.02479329       1.20069006       2.43686303
H        -6.05926378       2.33452910       1.62497968
H        -5.07072450       1.82512652      -0.56653395
H        -3.93685648       2.45323398       0.59313820
H        -2.96900786       0.70697772      -0.80374166
H        -4.16624961      -0.45154514      -0.30271609
H        -3.28243636      -0.27770546       2.09369927
H        -2.18149917      -0.96338382       0.93310397
H        -1.12496232       2.43501411       3.00973677
H        -1.93941602       0.98994554       3.64205523
H        -2.86181750       2.22071943       2.73681312
H        -0.74691611      -0.56398669      -0.44557982
H        -0.68165560       0.99861939      -1.20521349
H         2.18929407       0.37594764       0.88502442
H         2.91531738      -0.59365641      -0.38366429
H         2.37588387      -3.33076304       3.52161283
H         1.17957869      -3.79246507       2.29425994
H         2.87630725      -4.27352483       2.08956319
H         3.87912457      -0.62636734       1.79146538
H         4.16023791      -1.86469314       3.00170277
H         4.98848758      -3.43387388       1.25958662
H         4.55038346      -2.29889870      -0.01041078
H         6.19128415      -0.64317024       0.88728511
H         6.58338867      -1.72409700       2.20845742
H         8.32461667      -1.86443043       0.52338714
H         7.50228339      -3.39563460       0.70560589
H         6.21785699      -3.03298940      -1.35525401
H         8.27504436      -4.26577938      -1.48739087
H         8.12078098      -3.27945329      -2.94523151
H         9.24297355      -2.80023057      -1.65604289
H         6.65444855      -1.31078890      -2.93962544
H         5.98703657      -0.61710407      -1.49445671
H         8.01275734       0.47534330      -2.84985237
H         9.01781923      -0.62073418      -1.95080472
H         9.03436829       1.51106060      -0.87555683
H         8.24601906       0.37649930       0.19180016
H         6.00224162       1.30791166      -0.46874071
H         6.25257483       3.45041249       0.72061815
H         7.20829977       2.18632365       1.50504986
H         8.00980483       3.40287543       0.49392543
H         5.92704660       3.46801106      -1.73294169
H         7.64443154       3.28919339      -2.12908419
H         6.45439290       2.12618463      -2.74493545
