106
lig_029 free ligand  charge=0 uhf=0  ETKDGv3 + MMFF94s  smiles=CCCCCCCCCCCCN(C)C(=O)C1CC(OC)CC(C(=O)N(C)CCCCCCCCCCCC)O1
C        -7.06594696      -0.03453261       5.37692809
C        -8.15457582       0.91840235       4.90756013
C        -8.37600992       0.89066559       3.39324805
C        -8.96303113      -0.43349601       2.89293528
C        -9.23783185      -0.42831415       1.38433385
C        -8.15575898      -1.10439831       0.53299498
C        -6.78972200      -0.42177976       0.60069269
C        -5.73913468      -1.06994733      -0.30708955
C        -6.03910243      -1.04044594      -1.80957714
C        -6.32671088       0.33924551      -2.41208663
C        -5.23677613       1.40068655      -2.22555135
C        -4.08990713       1.34481130      -3.24287795
N        -3.24674350       0.15563729      -3.14831855
C        -3.31166353      -0.77261624      -4.26908838
C        -2.31805346       0.09644735      -2.10515675
O        -2.25291875       0.99621850      -1.26190508
C        -1.38267944      -1.13363948      -2.02692478
C        -2.10890721      -2.27405864      -1.30202573
C        -1.14908654      -3.38303365      -0.84937297
O        -0.90102107      -3.32311504       0.56008087
C        -1.93713269      -3.90576235       1.34112345
C         0.19485806      -3.25965697      -1.55591246
C         0.79855822      -1.85797862      -1.36245648
C         1.82506007      -1.51846495      -2.47168406
O         1.83089899      -2.15638111      -3.53020776
N         2.71116440      -0.46159630      -2.25456444
C         3.59145087      -0.05959610      -3.34229773
C         2.75821366       0.35109355      -1.03378308
C         3.62987461      -0.24308302       0.08101217
C         5.13612323      -0.30909100      -0.19196785
C         5.78611863       1.06548839      -0.36763547
C         7.28624464       0.99573114      -0.67793143
C         8.12233510       0.44454804       0.48151445
C         9.62887646       0.44503732       0.19617446
C        10.29554678       1.82462247       0.12396909
C        10.89977667       2.31842421       1.44437078
C         9.91875863       2.61008175       2.58039449
C         8.91774646       3.71759417       2.24957413
C         8.00523018       4.00996037       3.43075571
O        -0.19480085      -0.82815465      -1.30193962
H        -7.35072886      -1.07890522       5.22072271
H        -6.88427621       0.10183680       6.44788928
H        -6.12591285       0.15119214       4.84779524
H        -7.87206977       1.93749845       5.19776257
H        -9.09158060       0.68929284       5.42817812
H        -7.43255789       1.11465001       2.88576561
H        -9.06789551       1.70267661       3.13627252
H        -8.31663073      -1.27765937       3.15474091
H        -9.91559668      -0.59596445       3.41341736
H        -9.41543293       0.59147764       1.02276768
H       -10.17048941      -0.98093251       1.21124735
H        -8.51422392      -1.11348238      -0.50242211
H        -8.05539134      -2.15310273       0.83869464
H        -6.88923694       0.64293956       0.36277591
H        -6.40897300      -0.48044190       1.62669351
H        -4.77507176      -0.58344382      -0.12070416
H        -5.60679640      -2.11654127      -0.00414544
H        -5.20054307      -1.50795369      -2.33310031
H        -6.90003153      -1.68818700      -2.01492933
H        -6.54089432       0.22088847      -3.48143543
H        -7.25366960       0.72151573      -1.96710096
H        -4.85054041       1.38840999      -1.20229044
H        -5.71616862       2.38094742      -2.34917212
H        -4.48824485       1.42543728      -4.26149098
H        -3.44941824       2.22291906      -3.09159118
H        -4.35335485      -0.90243589      -4.57689932
H        -2.90535741      -1.75338262      -4.02531737
H        -2.73878079      -0.34704801      -5.09816193
H        -1.08771166      -1.41046122      -3.04424765
H        -2.86880168      -2.69934389      -1.96689511
H        -2.64762574      -1.86728368      -0.43881051
H        -1.57798332      -4.36498062      -1.08651495
H        -2.02823812      -4.97246296       1.11500279
H        -2.89403380      -3.40464201       1.17269556
H        -1.67089093      -3.79777930       2.39605375
H         0.90596301      -4.00658658      -1.18190491
H         0.04123437      -3.48360304      -2.61876816
H         1.31290804      -1.84975856      -0.39831850
H         4.62412566      -0.02429736      -2.99143055
H         3.54067190      -0.74052137      -4.19544863
H         3.29147832       0.93785808      -3.67801872
H         1.74346638       0.46615197      -0.64467388
H         3.08649564       1.36229604      -1.29677357
H         3.46903048       0.34836011       0.99126569
H         3.29167906      -1.25930992       0.31130165
H         5.33367513      -0.93989994      -1.06495808
H         5.59728643      -0.81826605       0.66235594
H         5.30491379       1.59990574      -1.19364445
H         5.62564847       1.66880002       0.53413229
H         7.61772565       2.00957282      -0.92593957
H         7.44732445       0.38390373      -1.57381048
H         7.82841856      -0.59441173       0.67055698
H         7.89919608       1.00011363       1.39570776
H         9.78903657      -0.06500994      -0.76267395
H        10.13519020      -0.16732224       0.95228446
H         9.62701898       2.57961630      -0.29814899
H        11.13011781       1.74274612      -0.58551355
H        11.47290203       3.23118668       1.23660174
H        11.62899741       1.57845052       1.79778914
H         9.39489720       1.69368749       2.87126691
H        10.50197170       2.91449260       3.45912659
H         8.29887787       3.43597218       1.39182924
H         9.45478808       4.63286116       1.97501214
H         7.29882308       4.80614017       3.17576282
H         7.42956726       3.12162401       3.70990751
H         8.58240345       4.33444626       4.30244236
