41
lig_149 free ligand  charge=0 uhf=0  ETKDGv3 + MMFF94s  smiles=CCN(CC)C(=O)COCC(=O)N(CC)CC
C        -4.90060982       0.98298421      -1.10471773
C        -3.79767428       0.11048065      -1.68640460
N        -2.94365142      -0.49036933      -0.66002528
C        -3.20784613      -1.88159105      -0.28036380
C        -4.32849729      -2.01173588       0.73765566
C        -1.95680477       0.31296866      -0.08065308
O        -1.77874639       1.47893265      -0.44427783
C        -1.08552558      -0.31900275       1.02714794
O        -0.22269074       0.56138339       1.73430241
C         0.93397907       0.94134358       1.00128365
C         2.05518503      -0.11498042       0.88804084
O         1.87387916      -1.27923080       1.25511966
N         3.27157854       0.29692710       0.33875719
C         4.35055102      -0.68588236       0.23467044
C         4.30764704      -1.42929661      -1.09145023
C         3.54856913       1.64879175      -0.15270734
C         4.22789494       2.50751453       0.90313230
H        -5.49375208       1.42672508      -1.91050040
H        -5.57612355       0.40556052      -0.46829327
H        -4.48977078       1.79683452      -0.49908526
H        -3.17106002       0.72444196      -2.34410720
H        -4.23029171      -0.68181130      -2.30682056
H        -3.44942233      -2.44995769      -1.18555340
H        -2.30219793      -2.33402801       0.13119415
H        -4.14328410      -1.38851131       1.61795040
H        -4.42165043      -3.05180812       1.06569171
H        -5.28906395      -1.71325368       0.30857018
H        -1.76294473      -0.73718490       1.77825245
H        -0.51577568      -1.14541773       0.59204568
H         1.34900730       1.80578646       1.52841222
H         0.65846773       1.26478800      -0.00685076
H         4.26906008      -1.40897394       1.05388918
H         5.31218767      -0.17507871       0.35257891
H         3.35888794      -1.96181294      -1.21438537
H         5.11997376      -2.16064555      -1.14356215
H         4.41414976      -0.73961338      -1.93487082
H         2.62206624       2.13360421      -0.46985553
H         4.18395752       1.57225153      -1.04205246
H         5.19132677       2.08174216       1.20092177
H         4.40773651       3.51460422       0.51452661
H         3.61127848       2.59252131       1.80331161
