70
lig_106 free ligand  charge=0 uhf=0  ETKDGv3 + MMFF94s  smiles=CCCCCCCCP(=O)(CC(=O)N(CC(C)C)CC(C)C)c1ccccc1
C         6.93438791      -2.60229675      -2.24793824
C         6.74015287      -2.31569010      -0.76698630
C         6.02555324      -0.99095552      -0.48661430
C         4.56821749      -0.97950614      -0.95452174
C         3.85177311       0.34806712      -0.68402582
C         3.75014900       0.76874304       0.78557248
C         3.08975505      -0.24437953       1.72151145
C         1.63603413      -0.58239769       1.40053584
P         0.42904103       0.75163666       1.70998143
O         0.75997159       1.38507209       3.03995417
C        -1.10927952      -0.18832037       1.80293699
C        -2.34995551       0.66224830       1.77579153
O        -2.29988104       1.85002165       2.08704632
N        -3.54570395       0.04570210       1.38250077
C        -3.75309213      -1.40898312       1.49451239
C        -4.09462706      -2.12550944       0.17902501
C        -4.52693704      -3.56583503       0.46877494
C        -2.91646208      -2.13287298      -0.79519343
C        -4.74855400       0.89164236       1.28028290
C        -4.93134875       1.74966587       0.00374733
C        -3.83046410       2.77858034      -0.24083338
C        -5.15590077       0.92256516      -1.25842484
C         0.37761810       1.81832009       0.29577288
C         0.12188813       1.32418905      -0.99086902
C         0.07904669       2.18718249      -2.08732579
C         0.28419752       3.55349938      -1.90797715
C         0.52917438       4.05827722      -0.63310728
C         0.57345208       3.19513846       0.46163894
H         7.53935943      -3.50535441      -2.37880020
H         5.97927662      -2.76929763      -2.75402547
H         7.45037995      -1.77449893      -2.74442754
H         7.72633288      -2.28457155      -0.28829717
H         6.18947768      -3.14258083      -0.30365419
H         6.57429574      -0.16900645      -0.96192661
H         6.06530039      -0.81637360       0.59442200
H         4.52996827      -1.15718583      -2.03544676
H         4.01962135      -1.80524331      -0.48760247
H         2.84797952       0.28741434      -1.11647952
H         4.36710657       1.14572252      -1.23402137
H         3.21210043       1.72084858       0.84180811
H         4.75617032       0.98345632       1.16577656
H         3.14196615       0.15123370       2.74279006
H         3.67519328      -1.17080366       1.72715790
H         1.52856570      -0.95368267       0.37714576
H         1.34334991      -1.41099075       2.05726333
H        -1.11711473      -0.87815011       0.95641452
H        -1.10335787      -0.77176719       2.72916580
H        -4.56626477      -1.55065526       2.21853591
H        -2.88336718      -1.88891442       1.95238274
H        -4.94066516      -1.62513974      -0.29865020
H        -4.79647774      -4.08479657      -0.45726223
H        -5.40185449      -3.58408311       1.12726763
H        -3.72511288      -4.13263823       0.95428766
H        -3.20214125      -2.60479551      -1.74144939
H        -2.57535165      -1.11868992      -1.02170586
H        -2.06729044      -2.69150522      -0.38697099
H        -4.75599543       1.56051807       2.15070269
H        -5.63077626       0.24862082       1.39037479
H        -5.85656510       2.32122538       0.16363395
H        -2.87697676       2.30060223      -0.48127617
H        -4.09127404       3.42606116      -1.08564641
H        -3.69680779       3.42589223       0.63120340
H        -4.25778655       0.36986563      -1.54252235
H        -5.41975213       1.57147692      -2.10113777
H        -5.98160818       0.21747242      -1.12305573
H        -0.04606837       0.26293296      -1.15171013
H        -0.11862179       1.79598654      -3.08190381
H         0.24656819       4.22728941      -2.75980366
H         0.67889455       5.12476747      -0.48662931
H         0.75111727       3.59553352       1.45924090
