138
lig_020 free ligand  charge=0 uhf=0  ETKDGv3+randomCoords + MMFF94s  smiles=CCCCC(CC)CN(CC(=O)N(CC(CC)CCCC)CC(CC)CCCC)CC(=O)N(CC(CC)CCCC)CC(CC)CCCC
C         0.82463219       3.96312995       5.52487186
C         2.06433998       3.82455415       4.65562543
C         2.64997570       2.41007739       4.65405366
C         1.77051536       1.39655005       3.90969028
C         2.32861779      -0.04113543       3.94580346
C         3.73485032      -0.18258740       3.31746363
C         3.91023073       0.36805989       1.90870573
C         1.31805758      -1.11408998       3.43642616
N         0.98478892      -1.06886867       2.00513854
C         0.72133060      -2.42930009       1.45984075
C         2.00480750      -3.23646062       1.18044181
O         3.06572874      -3.03342790       1.77228076
N         1.89436358      -4.25098938       0.21068299
C         3.13983502      -4.78396423      -0.35047795
C         3.94742795      -3.89006055      -1.33660658
C         4.70317895      -2.73346525      -0.65637340
C         5.75742721      -2.09205899      -1.55125206
C         3.15532335      -3.47323647      -2.59520855
C         2.26527821      -2.23652664      -2.44972181
C         1.36074699      -1.99970666      -3.66184702
C         2.12159746      -1.61717486      -4.92098092
C         0.70234802      -5.12461136       0.18086489
C        -0.33358017      -4.82081715      -0.93542425
C        -0.58815723      -6.06595148      -1.82425684
C         0.55839435      -6.42932072      -2.75180381
C        -1.68660244      -4.39898375      -0.29533782
C        -2.66030927      -3.67933906      -1.23843821
C        -2.23815383      -2.24167189      -1.54261933
C        -3.24739600      -1.54755308      -2.44281363
C        -0.17259917      -0.18845602       1.71113032
C        -0.00436755       0.48548284       0.33074535
O         0.46745294      -0.12989135      -0.63080368
N        -0.40301857       1.81797702       0.18735841
C         0.16573877       2.54891041      -0.95546360
C        -0.70257488       2.48903872      -2.23600028
C        -1.63249592       3.71572947      -2.36125772
C        -0.94136280       5.04230914      -2.65372417
C         0.20817420       2.28102991      -3.46921148
C        -0.49770639       2.18455059      -4.82741490
C        -1.51143208       1.04410406      -4.91276701
C        -2.06362881       0.89479030      -6.32188952
C        -1.22151871       2.57549610       1.14175499
C        -2.61005392       1.97411133       1.48964175
C        -3.40186937       1.57023512       0.22585447
C        -4.67187214       0.78047397       0.51875699
C        -3.43442732       2.95723043       2.35755920
C        -2.73589924       3.38735483       3.65187048
C        -3.67903559       4.19606140       4.54478890
C        -2.98881229       4.65151993       5.82030097
H         1.02983792       3.65304037       6.55431610
H         0.49620697       5.00712279       5.54549005
H        -0.00401054       3.36162638       5.14295365
H         1.83177384       4.13608183       3.63067852
H         2.82777807       4.51587101       5.03221334
H         3.63471742       2.46134730       4.17675967
H         2.81328553       2.07692411       5.68591894
H         0.77614885       1.38694763       4.37015798
H         1.64331005       1.73360920       2.87565997
H         2.46421243      -0.28424956       5.01084025
H         4.03138551      -1.23739026       3.32923338
H         4.46099802       0.32297833       3.96645297
H         3.25325227      -0.12012577       1.18723777
H         3.72621570       1.44522026       1.86888523
H         4.94005021       0.20166706       1.57469500
H         1.76070640      -2.08561639       3.69202200
H         0.40059696      -1.06649440       4.03947500
H         0.21038958      -2.33894200       0.49747512
H         0.07653777      -2.99746394       2.13955784
H         3.78687199      -5.07537506       0.48687083
H         2.90577756      -5.71207421      -0.88094561
H         4.73167058      -4.56851880      -1.70765266
H         5.21385478      -3.11307067       0.23680171
H         4.01023946      -1.95524053      -0.32457161
H         5.30998418      -1.60936366      -2.42453038
H         6.30497948      -1.32567536      -0.99306521
H         6.48041529      -2.83595022      -1.90053595
H         2.55566138      -4.32373430      -2.93154580
H         3.87628045      -3.28679243      -3.40097585
H         1.62597700      -2.34209392      -1.57209259
H         2.87688036      -1.34263494      -2.28481363
H         0.66494568      -1.18929013      -3.41802345
H         0.75191823      -2.88986686      -3.85714359
H         2.75360073      -0.74061914      -4.74680075
H         1.41879907      -1.37268473      -5.72407060
H         2.75477445      -2.43732102      -5.27152657
H         0.22533922      -5.06212249       1.16616200
H         1.05308019      -6.16172250       0.11888309
H         0.03752613      -4.00942167      -1.56627427
H        -1.46707748      -5.90400687      -2.45681960
H        -0.82337103      -6.93075758      -1.19100573
H         0.78167436      -5.60477275      -3.43386141
H         0.28256166      -7.29591678      -3.36199782
H         1.46197121      -6.69409825      -2.20100024
H        -1.52492755      -3.75283496       0.57215984
H        -2.18525299      -5.29593634       0.09587365
H        -2.79125158      -4.23602565      -2.17136151
H        -3.64433045      -3.65623892      -0.75268292
H        -2.14944218      -1.67826185      -0.60707391
H        -1.25852513      -2.22219588      -2.02877373
H        -4.24333860      -1.54429103      -1.98895266
H        -3.31339047      -2.04588429      -3.41513072
H        -2.95001048      -0.50905152      -2.61165554
H        -1.11592632      -0.74746161       1.71833393
H        -0.25841324       0.58269082       2.47415392
H         1.15281965       2.11368378      -1.15891957
H         0.37166268       3.57637085      -0.63867563
H        -1.34646394       1.60436122      -2.16157692
H        -2.20926624       3.83091607      -1.43863670
H        -2.37067866       3.53024091      -3.15040636
H        -1.68616055       5.84398311      -2.69904261
H        -0.22055040       5.30754942      -1.87603436
H        -0.42096272       5.02619126      -3.61512274
H         0.94745022       3.09027868      -3.52066588
H         0.78627539       1.35877792      -3.32432244
H         0.27257476       2.03609585      -5.59502383
H        -0.98916706       3.13356567      -5.06863861
H        -2.34678749       1.22945730      -4.22997782
H        -1.04302365       0.10136618      -4.61058604
H        -2.79238446       0.07894396      -6.35820553
H        -1.26441549       0.66774373      -7.03465023
H        -2.56408742       1.81273282      -6.64625663
H        -0.61706495       2.68903817       2.04760268
H        -1.37064612       3.58480938       0.74081214
H        -2.46286639       1.06866462       2.08689412
H        -2.77876242       0.94071870      -0.41599116
H        -3.66659159       2.46039559      -0.35422433
H        -5.11419007       0.42564434      -0.41785610
H        -5.42503757       1.39315955       1.02140651
H        -4.45668847      -0.09287069       1.14234294
H        -4.38551230       2.48602313       2.62980452
H        -3.68222735       3.84924472       1.76813629
H        -2.38611656       2.50124969       4.19494367
H        -1.85781297       3.99956179       3.41840629
H        -4.55339211       3.58937416       4.80779742
H        -4.04528250       5.07450710       4.00079320
H        -3.68753650       5.21069284       6.45037017
H        -2.14025172       5.30461269       5.59403000
H        -2.62162793       3.79584311       6.39582753
