120
lig_089 free ligand  charge=0 uhf=0  ETKDGv3 + MMFF94s  smiles=CCCCCCCCN(CCCCCCCC)C(=O)COCCOCC(=O)N(CCCCCCCC)CCCCCCCC
C         1.74442830       2.35920275      -1.17044715
C         1.82292193       3.10535880       0.15154734
C         0.86118037       2.57216553       1.21646738
C         1.03286618       1.09527254       1.58761519
C         2.44001174       0.75023136       2.08230828
C         2.54918775      -0.65572182       2.68277605
C         2.31507568      -1.81771674       1.70999048
C         3.57029325      -2.34323541       0.99859518
N         4.07968540      -1.48270001      -0.06940191
C         5.19925484      -0.59322203       0.24705892
C         6.55762961      -1.11748219      -0.23801216
C         7.00366136      -2.39581655       0.47678106
C         8.36439134      -2.91369831      -0.00264781
C         9.53498136      -2.01432061       0.40792289
C        10.89900693      -2.58861864       0.00613151
C        11.45601306      -2.04880884      -1.31455087
C        10.62332455      -2.39319996      -2.53699189
C         3.60318996      -1.48473858      -1.38554502
O         4.06638223      -0.72036152      -2.23674752
C         2.50528007      -2.51257977      -1.74922008
O         1.90288488      -2.42385998      -3.03298528
C         1.11568504      -1.24336644      -3.23333225
C        -0.28395117      -1.35817256      -2.62291489
O        -0.21069542      -1.17356600      -1.20649734
C        -1.48597742      -1.08669349      -0.58810468
C        -2.19505084       0.28095935      -0.68341159
O        -1.79897797       1.15188044      -1.46142720
N        -3.30843749       0.48531408       0.13458513
C        -3.97460539       1.78878326       0.07366241
C        -4.90902210       1.93743924      -1.13307737
C        -6.11828405       1.00042459      -1.07452822
C        -7.15105934       1.27313441      -2.17270837
C        -6.62989679       0.98029970      -3.58242104
C        -7.73376052       1.16185157      -4.62780832
C        -7.29565704       0.78263834      -6.04413990
C        -6.21248596       1.68879164      -6.60870383
C        -3.81085812      -0.48222933       1.11368270
C        -3.21514225      -0.23419616       2.50178998
C        -3.64048678      -1.27605555       3.53934648
C        -5.14894784      -1.39064334       3.78423425
C        -5.86194261      -0.08671012       4.15750283
C        -5.32625241       0.54897785       5.44267400
C        -6.14567134       1.75732401       5.90284468
C        -6.07703998       2.93560456       4.94319143
H         0.72405707       2.36343393      -1.56463599
H         2.07120088       1.32145399      -1.06317936
H         2.39475636       2.83599885      -1.91073934
H         2.85309484       3.08008660       0.52372221
H         1.58676464       4.16112681      -0.02854556
H        -0.16991097       2.72403757       0.87305245
H         0.97619259       3.18081613       2.12199779
H         0.30275213       0.85418541       2.36984949
H         0.77703708       0.47771373       0.72299157
H         2.72802006       1.47044055       2.85829901
H         3.15639614       0.86632863       1.26721474
H         1.80803579      -0.73213011       3.48918891
H         3.52841915      -0.76717516       3.16339450
H         1.53046781      -1.57239074       0.99161978
H         1.92680189      -2.65474857       2.30571593
H         4.36846672      -2.52480496       1.72713681
H         3.33393309      -3.31983050       0.56302271
H         5.22775231      -0.41005098       1.32657211
H         5.01313650       0.37385027      -0.23594077
H         7.29491615      -0.32517368      -0.06872326
H         6.52880791      -1.29844696      -1.31879709
H         6.26688611      -3.18673171       0.29452404
H         7.03211079      -2.22851041       1.56006727
H         8.33716211      -3.04837275      -1.08812277
H         8.51816206      -3.90986834       0.43120238
H         9.42068698      -1.00415809       0.00162179
H         9.51571507      -1.91647434       1.50095075
H        11.61965648      -2.31975764       0.78940151
H        10.86866928      -3.68435127      -0.01825771
H        11.56933079      -0.96009299      -1.25031282
H        12.46347669      -2.45943335      -1.45401234
H        10.42940328      -3.46872603      -2.59360259
H         9.66739378      -1.86175413      -2.52921680
H        11.15403685      -2.09675160      -3.44763413
H         1.73032706      -2.53828022      -0.98441229
H         2.99696704      -3.49226795      -1.72243604
H         1.00934761      -1.13677438      -4.31797752
H         1.63679453      -0.35646800      -2.86232288
H        -0.70499725      -2.34897507      -2.82577347
H        -0.92805041      -0.59248388      -3.06568795
H        -2.15098189      -1.86259643      -0.98441152
H        -1.31088321      -1.30129148       0.46989477
H        -4.52335227       1.96222348       1.00642578
H        -3.20150029       2.56460938       0.01373524
H        -5.26196420       2.97540383      -1.16590095
H        -4.34708328       1.76185371      -2.05657464
H        -6.61472860       1.11623185      -0.10317815
H        -5.78869370      -0.04279812      -1.14292060
H        -8.02916316       0.64501144      -1.97750876
H        -7.48839089       2.31493669      -2.11104964
H        -5.79603935       1.65122245      -3.81146036
H        -6.24729470      -0.04633518      -3.62674283
H        -8.08593987       2.20057379      -4.61733097
H        -8.59195105       0.53453789      -4.35652599
H        -8.17061283       0.83441416      -6.70313756
H        -6.94741092      -0.25662954      -6.06147628
H        -5.27300063       1.58252360      -6.05861375
H        -6.01434352       1.43034956      -7.65394229
H        -6.51945743       2.73875531      -6.57190698
H        -4.90207241      -0.40326135       1.13735499
H        -3.57695593      -1.49864930       0.78490629
H        -3.47809411       0.77124008       2.84986322
H        -2.12025648      -0.24432274       2.43567313
H        -3.26704729      -2.25965261       3.22733782
H        -3.13572586      -1.05100109       4.48647262
H        -5.63000903      -1.80691275       2.89097942
H        -5.31291428      -2.12601788       4.58210091
H        -6.92891647      -0.30794210       4.28583661
H        -5.79213186       0.62075459       3.32471788
H        -4.28266978       0.85537001       5.30888052
H        -5.33749282      -0.19971825       6.24426751
H        -5.76724425       2.08143223       6.87968633
H        -7.19218766       1.46599506       6.04948067
H        -6.59758786       3.79858820       5.37073495
H        -5.03943638       3.22670790       4.75145521
H        -6.55377576       2.70278352       3.98657889
