58
lig_013 free ligand  charge=0 uhf=0  ETKDGv3 + MMFF94s  smiles=CC1(C)CCC(C)(C)c2nc(-c3cccc(-c4cccc(-c5ccccn5)n4)n3)nnc21
C        -3.23181403       2.83455283       2.25925066
C        -3.52794985       2.31093363       0.83805463
C        -3.25746043       3.45012649      -0.16626160
C        -5.01505758       1.89655298       0.79031989
C        -5.33260023       1.05492933      -0.44046390
C        -4.51437131      -0.25530762      -0.47297118
C        -5.08902817      -1.27091914       0.53611570
C        -4.64407236      -0.85211597      -1.89084264
C        -3.04924678      -0.01506074      -0.12832487
N        -2.19029128      -1.02466425      -0.42378300
C        -0.88815071      -0.83864613      -0.10559454
C         0.07064030      -1.92166551      -0.42336998
C        -0.33618693      -3.10229282      -1.04865847
C         0.60235755      -4.08858472      -1.33367402
C         1.93276569      -3.88050586      -0.98899213
C         2.29530625      -2.68932220      -0.36248965
C         3.69126617      -2.39847570       0.03184783
C         4.52830014      -3.36524593       0.58685228
C         5.83270614      -3.02028887       0.92350255
C         6.27033573      -1.71830646       0.70477249
C         5.39426362      -0.78420548       0.15488388
C         5.78584469       0.62496826      -0.08743636
C         4.86058882       1.59044729      -0.49287435
C         5.28084899       2.90199377      -0.70437478
C         6.61526999       3.22676885      -0.50850684
C         7.47672007       2.22195051      -0.10623138
N         7.09836531       0.94174049       0.10755936
N         4.12301859      -1.12837958      -0.18515565
N         1.37487895      -1.72753751      -0.08301563
N        -0.43162506       0.28442158       0.48552406
N        -1.30445420       1.28876413       0.78775083
C        -2.61541238       1.14669918       0.49927400
H        -3.91580775       3.64746820       2.52933531
H        -2.21106650       3.22458418       2.34748675
H        -3.34336575       2.03986013       3.00650168
H        -2.22690226       3.81698932      -0.08693318
H        -3.92295165       4.30203235       0.01377294
H        -3.40026597       3.12619419      -1.20302402
H        -5.65693598       2.78677659       0.79780548
H        -5.28076854       1.32858279       1.69091730
H        -5.13443053       1.64889482      -1.34169426
H        -6.40683396       0.83078424      -0.45980708
H        -4.97779006      -0.92926365       1.57102568
H        -4.57824526      -2.23886203       0.46435504
H        -6.15492862      -1.44898789       0.35407435
H        -4.15868187      -1.83196998      -1.96936544
H        -4.18278958      -0.19806454      -2.64033960
H        -5.69657167      -0.98751427      -2.16568510
H        -1.37744790      -3.25451154      -1.31934362
H         0.29877892      -5.00706673      -1.82803358
H         2.67437661      -4.63566653      -1.22863012
H         4.17387198      -4.37296937       0.77600241
H         6.50231165      -3.75445312       1.36193654
H         7.28384017      -1.43223277       0.97071535
H         3.81575190       1.32522691      -0.63709615
H         4.56621953       3.65796695      -1.01640628
H         6.97446209       4.23751261      -0.66343525
H         8.53041530       2.42536429       0.06161812
