70
lig_024 free ligand  charge=0 uhf=0  ETKDGv3 + MMFF94s  smiles=CCCCC(CC)CP(=O)(CC(=O)N(CC(C)C)CC(C)C)c1ccccc1
C         3.83429518       2.36319046       2.46896745
C         2.49236499       2.14350640       1.78825258
C         2.59285467       1.36997267       0.47017994
C         3.07898023      -0.07129643       0.65226037
C         3.07450137      -0.93632022      -0.62801413
C         3.94910778      -0.35970359      -1.76316472
C         5.40474546      -0.14450596      -1.37343365
C         1.65914279      -1.21658191      -1.17345099
P         0.55439621      -2.18294668      -0.09537085
O         1.37561515      -2.86643595       0.97909421
C        -0.50577657      -0.97076002       0.70977734
C        -1.31699293      -0.08645491      -0.19384528
O        -1.28888984      -0.25624585      -1.41228890
N        -2.07216269       0.93201916       0.38982233
C        -2.69620794       1.91975723      -0.50512621
C        -1.79246171       3.08764503      -0.96641833
C        -0.73040567       2.67437228      -1.98339880
C        -1.15014979       3.84500246       0.19412100
C        -2.30525531       1.07655574       1.83889983
C        -3.61827685       0.46779469       2.39315859
C        -4.88362206       1.16124394       1.89015381
C        -3.73693197      -1.03951212       2.18009116
C        -0.34789694      -3.35824769      -1.08262189
C         0.37809919      -4.37597323      -1.72431513
C        -0.26418269      -5.34119576      -2.50108602
C        -1.64806548      -5.30904646      -2.64159019
C        -2.38575598      -4.31790317      -1.99914485
C        -1.74046765      -3.35360465      -1.21965857
H         3.70951920       3.00826434       3.34466836
H         4.26915009       1.42035968       2.81307719
H         4.54486747       2.84620870       1.79087843
H         2.04396863       3.12256396       1.58143606
H         1.81401743       1.62416402       2.47520559
H         1.59919617       1.36640907       0.01433873
H         3.25584513       1.91228808      -0.21272830
H         4.09700819      -0.06129053       1.05809413
H         2.47047201      -0.55723960       1.42183101
H         3.50643178      -1.90714686      -0.34926891
H         3.52877423       0.58383557      -2.13032716
H         3.92953861      -1.05486132      -2.61227050
H         5.98817811       0.14756182      -2.25265775
H         5.84240698      -1.06146217      -0.96660593
H         5.51045641       0.65144121      -0.63073983
H         1.76549681      -1.80251624      -2.09451613
H         1.18013041      -0.28225711      -1.47485363
H        -1.17271067      -1.52312099       1.37164602
H         0.13551707      -0.33469305       1.32587675
H        -3.08536895       1.39624810      -1.38699088
H        -3.56237038       2.35304161       0.00037300
H        -2.45357472       3.79566877      -1.48514509
H        -1.18058137       2.13618140      -2.82372352
H        -0.22668506       3.55783221      -2.39111616
H         0.03750309       2.04010283      -1.53547312
H        -1.91151161       4.20095666       0.89561167
H        -0.60438201       4.72151621      -0.17178652
H        -0.43976528       3.21748621       0.74126473
H        -1.47104273       0.62861070       2.38585268
H        -2.27752908       2.14448709       2.08023469
H        -3.59028841       0.63261900       3.47932478
H        -4.81203014       2.24694886       2.01051553
H        -5.08062359       0.93212121       0.83829641
H        -5.75576833       0.82597842       2.46280945
H        -4.67218147      -1.41843510       2.60715832
H        -3.72853112      -1.30090168       1.11762130
H        -2.92087663      -1.56761284       2.68160406
H         1.45933862      -4.42215575      -1.60395840
H         0.31594562      -6.11966313      -2.98937284
H        -2.15211943      -6.05869512      -3.24542448
H        -3.46753956      -4.29411696      -2.10345329
H        -2.34888245      -2.60105270      -0.72915655
