146
lig_046 free ligand  charge=0 uhf=0  ETKDGv3+randomCoords + MMFF94s  smiles=CCCCCCCCCCN(CCCCCCCCCC)C(=O)[C@H](C)O[C@H](CC)C(=O)N(CCCCCCCCCC)CCCCCCCCCC
C         3.58403311       3.60840318      -2.50621850
C         4.46887482       2.40064185      -2.23897121
C         3.78007102       1.30729687      -1.41976814
C         2.59383254       0.66534801      -2.14155005
C         1.99983816      -0.47928945      -1.31966299
C         0.80535914      -1.11894593      -2.03068282
C         0.19930711      -2.23867247      -1.18230330
C        -0.96067132      -2.92271271      -1.89950426
C        -1.53131059      -4.14851530      -1.17757533
C        -2.33261574      -3.85556012       0.09813175
N        -1.53515790      -3.61615441       1.30429630
C        -0.71209798      -4.72670817       1.80160876
C         0.78478899      -4.57009099       1.52117413
C         1.59804579      -5.65225672       2.23668734
C         3.10724684      -5.53622732       1.99208190
C         3.64981043      -6.44961744       0.88627826
C         3.16089545      -6.17165557      -0.53717423
C         3.59646323      -4.80420395      -1.07013434
C         3.08157980      -4.51495829      -2.48398130
C         3.71653937      -5.39866338      -3.55759734
C         3.25170666      -4.99587654      -4.94907342
C        -1.58839903      -2.47136389       2.09730563
O        -0.83706940      -2.34442830       3.07522991
C        -2.68124534      -1.38778414       1.88041644
C        -3.99213281      -1.91009227       2.47225231
O        -2.93392468      -0.90712958       0.56728392
C        -3.22694952       0.49428050       0.52320885
C        -4.09905094       0.78141373      -0.71144573
C        -3.54938433       0.22107000      -2.01538538
C        -1.95113598       1.37754428       0.47559013
O        -0.89744081       0.91092614       0.03553694
N        -2.03311307       2.70263318       0.91293715
C        -0.89297215       3.58973581       0.64172263
C        -1.20408570       4.69606005      -0.37661110
C        -1.69845126       4.21735636      -1.74502894
C        -0.65504284       3.42029446      -2.52767740
C        -1.17240034       3.04922979      -3.91957634
C        -0.16124638       2.18849658      -4.67732544
C        -0.67830186       1.80526768      -6.06406000
C         0.32917853       0.92418411      -6.80472024
C        -0.18577861       0.53326317      -8.18946597
C         0.81235090      -0.34503528      -8.92693492
C        -3.14703471       3.25215542       1.69284573
C        -3.13987913       2.83045318       3.16884358
C        -1.94863721       3.37520770       3.95871597
C        -2.06860392       3.03761060       5.44671452
C        -0.86759908       3.56695217       6.23420916
C        -0.98059374       3.21934223       7.71783105
C         0.10601750       3.84900602       8.59661884
C         1.53128315       3.37711603       8.28876309
C         2.29932062       4.34494336       7.38566661
C         3.70518799       3.83935807       7.10033844
H         3.17577412       4.01250505      -1.57451540
H         2.75178325       3.35508862      -3.16872724
H         4.16432686       4.39858453      -2.99338427
H         4.81963981       1.98791930      -3.19200547
H         5.35848006       2.73483411      -1.69183384
H         3.44780948       1.72285895      -0.46050643
H         4.52191677       0.53286858      -1.18852202
H         1.81797301       1.41633182      -2.31961387
H         2.91530000       0.28872695      -3.11993028
H         2.76912783      -1.24034839      -1.14042069
H         1.68743447      -0.10207457      -0.33857947
H         0.04167868      -0.36013428      -2.23539722
H         1.12938649      -1.52070773      -2.99845105
H         0.97860988      -2.97250794      -0.96532953
H        -0.13627866      -1.82284342      -0.22868440
H        -0.61389675      -3.25188386      -2.88763199
H        -1.76012041      -2.19898132      -2.08108759
H        -0.73919841      -4.88084090      -0.99491574
H        -2.22332866      -4.63004585      -1.88160616
H        -2.95444572      -4.73135454       0.32461116
H        -3.03434584      -3.04834793      -0.09782727
H        -0.87187174      -4.80120245       2.88491021
H        -1.08131086      -5.66541402       1.37164517
H         0.95836282      -4.63129758       0.44735345
H         1.13242796      -3.58102942       1.84061504
H         1.23817252      -6.64936238       1.95701536
H         1.42079298      -5.54766303       3.31495819
H         3.61326224      -5.83655888       2.91939935
H         3.39926434      -4.49482540       1.81893522
H         4.74556241      -6.38826640       0.89779573
H         3.40276878      -7.48877230       1.13847518
H         2.07209501      -6.27444865      -0.59038139
H         3.57256921      -6.95654115      -1.18239688
H         3.22071206      -4.01464967      -0.41064092
H         4.69060857      -4.73140328      -1.05490661
H         3.29504438      -3.46404724      -2.71611280
H         1.99125370      -4.62908936      -2.51026659
H         4.80863894      -5.32122645      -3.50706526
H         3.45507421      -6.44897467      -3.39180984
H         3.52897133      -3.96043611      -5.17137161
H         2.16475176      -5.08808910      -5.04117746
H         3.71292193      -5.64027205      -5.70401461
H        -2.34119976      -0.54743164       2.50261786
H        -3.84724384      -2.29645294       3.48637654
H        -4.41117395      -2.71457601       1.85880052
H        -4.74796441      -1.11883926       2.50864161
H        -3.82564636       0.75194130       1.39980601
H        -5.08686262       0.33135103      -0.55158380
H        -4.25452067       1.85934042      -0.82802191
H        -4.16759033       0.55376984      -2.85553961
H        -2.52408957       0.55256540      -2.19985668
H        -3.57013568      -0.87176224      -2.00772912
H        -0.59226658       4.05310090       1.58690558
H        -0.02616247       3.01771605       0.29603587
H        -1.96240223       5.37014867       0.03846990
H        -0.30179941       5.30509094      -0.51361533
H        -1.97900139       5.10191584      -2.33084985
H        -2.61192063       3.62373267      -1.62774608
H         0.26379442       4.01057917      -2.62392231
H        -0.39674232       2.50625990      -1.98559535
H        -2.11981092       2.50493135      -3.82766371
H        -1.37966270       3.96280734      -4.48987299
H         0.04523956       1.27767338      -4.10414817
H         0.78599175       2.73222562      -4.77469611
H        -0.87411509       2.71287830      -6.64772983
H        -1.63110310       1.27080381      -5.96634288
H         1.28174793       1.45885986      -6.90397946
H         0.52696641       0.01898503      -6.21745246
H        -1.13660778      -0.00410423      -8.09534497
H        -0.37946674       1.43431994      -8.78297356
H         1.00368119      -1.27055922      -8.37449987
H         1.76519949       0.17558082      -9.06613336
H         0.42419988      -0.61300352      -9.91457327
H        -4.08654562       2.92434430       1.23872335
H        -3.13809722       4.34457250       1.62233460
H        -4.06795358       3.19409220       3.62725286
H        -3.15214631       1.73911697       3.25726755
H        -1.01922459       2.94325100       3.57095649
H        -1.88638558       4.46263059       3.83281436
H        -2.99230462       3.47143205       5.84852204
H        -2.13981961       1.95027769       5.57241874
H         0.04728310       3.12965242       5.81957684
H        -0.80039382       4.65459124       6.11295266
H        -0.96117669       2.12930768       7.84067188
H        -1.95498395       3.55731835       8.09263137
H         0.03924264       4.94249291       8.55128504
H        -0.12279450       3.57101788       9.63368982
H         1.51866522       2.37118822       7.85293277
H         2.07719332       3.29818626       9.23786675
H         1.77662047       4.49083759       6.43605106
H         2.36486467       5.32681192       7.86912874
H         3.67724743       2.87327390       6.58628789
H         4.24052549       4.54870079       6.46142798
H         4.27543576       3.71999484       8.02709717
