61
lig_140 free ligand  charge=0 uhf=0  ETKDGv3 + MMFF94s  smiles=CCCc1nnc(-c2cccc(-c3nnc(CCC)c(CCC)n3)n2)nc1CCC
C         8.47915630       0.81358979       0.99185455
C         6.98655911       1.05472004       0.82967889
C         6.49652281       0.61131720      -0.54889144
C         5.03267682       0.88222650      -0.74444837
N         4.73109069       2.02227907      -1.40428781
N         3.42581370       2.34666176      -1.62190222
C         2.44966518       1.52523357      -1.17341481
C         1.04221148       1.91312327      -1.43054907
C         0.71307856       3.07765046      -2.12631405
C        -0.62379324       3.39504957      -2.33945395
C        -1.61048027       2.54434487      -1.85397110
C        -1.24530372       1.38832605      -1.16227894
C        -2.25764262       0.45033177      -0.62402692
N        -1.84028293      -0.64014130       0.05259876
N        -2.75988785      -1.51269813       0.55889643
C        -4.07549107      -1.27573405       0.37690878
C        -5.00952350      -2.29553762       0.96314923
C        -4.96928379      -3.64169756       0.23264926
C        -5.55433370      -3.58246304      -1.17116739
C        -4.46974726      -0.14240400      -0.32328833
C        -5.91210852       0.22621037      -0.55708937
C        -6.55465206       0.96084135       0.62347468
C        -5.97997218       2.35258209       0.85130899
N        -3.56506133       0.73241011      -0.83140572
N         0.06701716       1.08392552      -0.95767657
N         2.70544526       0.38146680      -0.50664969
C         4.00507936       0.06716735      -0.28753537
C         4.22518474      -1.21323466       0.47623079
C         3.76617095      -1.08849734       1.93146197
C         4.02394627      -2.37090673       2.70670797
H         8.80984548       1.13789897       1.98351044
H         8.71812744      -0.24931249       0.88479416
H         9.05073772       1.37222132       0.24385420
H         6.77607649       2.12093557       0.97814505
H         6.45272895       0.51463003       1.61897510
H         7.05749925       1.15706099      -1.31936898
H         6.71737579      -0.44692926      -0.72620263
H         1.48771255       3.73984383      -2.50386370
H        -0.89435664       4.29827638      -2.87937272
H        -2.65750585       2.78571395      -2.01592195
H        -6.03970414      -1.93101369       1.01231589
H        -4.70699782      -2.45758370       2.00601917
H        -3.94157606      -4.02037306       0.17996419
H        -5.54502765      -4.37039531       0.81599091
H        -5.55042555      -4.58011637      -1.62183941
H        -4.97324989      -2.92098893      -1.82073688
H        -6.58913695      -3.22648339      -1.14996557
H        -6.49055921      -0.67327960      -0.79475958
H        -5.97830104       0.85566229      -1.45428517
H        -7.62843565       1.06100399       0.42450586
H        -6.45554794       0.37742821       1.54579195
H        -6.05306036       2.96169666      -0.05523089
H        -4.92982151       2.30794723       1.15514163
H        -6.53419446       2.86166506       1.64640353
H         3.65701443      -2.00918186      -0.02225227
H         5.27177512      -1.52879317       0.44599457
H         4.28769986      -0.25940845       2.42395733
H         2.69505747      -0.85615513       1.97312573
H         3.48803574      -3.21403306       2.25926338
H         5.09182219      -2.61116077       2.72328453
H         3.68433785      -2.26291937       3.74154842
