39
lig_101 free ligand  charge=0 uhf=0  ETKDGv3 + MMFF94s  smiles=CCCCCCCCNC(=O)c1cc(Cl)ccn1
C        -4.25819789       1.15187143      -2.07164804
C        -3.21659797       0.73555055      -1.04350087
C        -3.86723172       0.35937078       0.28695530
C        -2.86611084       0.01173185       1.39544699
C        -2.55898289      -1.48095302       1.54053009
C        -1.68875668      -2.13454726       0.46411494
C        -0.21232615      -1.72480181       0.49692111
C         0.13465685      -0.58762465      -0.45992509
N         1.55318636      -0.31157055      -0.45376344
C         2.15023677       0.52735320       0.46248826
O         1.54824057       1.11945549       1.35029789
C         3.63271118       0.66704747       0.29526028
C         4.34666465       1.48396320       1.15488088
C         5.71525847       1.57329494       0.95193709
Cl        6.66812144       2.56970802       1.98148474
C         6.32801798       0.86561679      -0.07589066
C         5.52983546       0.07543648      -0.88238397
N         4.19498047      -0.04446021      -0.72545247
H        -4.96163902       0.33668508      -2.26911325
H        -3.77284853       1.41813052      -3.01586540
H        -4.82662804       2.02103987      -1.72558863
H        -2.51475875       1.56387656      -0.89328214
H        -2.64774733      -0.10463549      -1.44792335
H        -4.57958646      -0.46152434       0.14254386
H        -4.45552716       1.22185920       0.62711615
H        -1.95050350       0.60335178       1.31021307
H        -3.32619857       0.32162442       2.34390271
H        -3.50931207      -2.02801073       1.59181836
H        -2.07696900      -1.63664373       2.51456678
H        -1.72242036      -3.21538738       0.65845090
H        -2.11964580      -2.00512252      -0.53238662
H         0.09646726      -1.47511034       1.51918029
H         0.38813937      -2.59826468       0.20847885
H        -0.13309465      -0.85515922      -1.48727774
H        -0.39372153       0.33048417      -0.19601083
H         2.16821222      -0.74844674      -1.13577525
H         3.85006779       2.02775913       1.95085889
H         7.39719148       0.92603937      -0.24617680
H         5.95681656      -0.49898763      -1.70041769
