45
lig_156 free ligand  charge=0 uhf=0  ETKDGv3 + MMFF94s  smiles=CN(C(=O)c1cccc(C(=O)N(C)c2ccccc2)n1)c1ccccc1
C        -2.37835845       0.27920747      -1.21259699
N        -2.56580389      -0.63678770      -0.09023298
C        -2.03014072      -1.93978880      -0.14698836
O        -2.51642911      -2.92774685       0.40649844
C        -0.79135450      -2.18061306      -0.95549073
C        -0.68822450      -3.37188663      -1.66861084
C         0.48703603      -3.62964687      -2.36248763
C         1.52664954      -2.70782694      -2.29596237
C         1.35168446      -1.54208956      -1.54931284
C         2.53311221      -0.62004387      -1.37852374
O         3.64464114      -1.11107771      -1.58966876
N         2.31995919       0.71928829      -0.99170659
C         1.11789880       1.41751303      -1.43435867
C         3.29821984       1.46507609      -0.22905915
C         3.12153323       2.83389771       0.04743918
C         4.05279894       3.56055867       0.80169667
C         5.18152322       2.93267218       1.31137475
C         5.37136783       1.57783903       1.07344925
C         4.43755553       0.85473863       0.31897743
N         0.20000846      -1.24990343      -0.88593794
C        -3.39737883      -0.19833170       1.00884934
C        -4.09615085       1.02210245       0.95650386
C        -4.88729053       1.46362793       2.02547081
C        -4.99010686       0.69979997       3.18086880
C        -4.29590134      -0.49999743       3.26765041
C        -3.50609975      -0.93836349       2.19662482
H        -3.35439071       0.53133491      -1.64064914
H        -1.87036248       1.18330256      -0.86638699
H        -1.80581899      -0.16410274      -2.02961812
H        -1.50275647      -4.09063148      -1.66806863
H         0.60569355      -4.55356515      -2.92253521
H         2.47054751      -2.91000766      -2.79543044
H         1.39408453       2.33678451      -1.96093279
H         0.54881901       0.83371892      -2.16144095
H         0.49088497       1.64548587      -0.56790517
H         2.25626588       3.38344766      -0.30748067
H         3.88822636       4.61811446       0.99146652
H         5.90491538       3.49246776       1.89736402
H         6.24400089       1.07001287       1.47645884
H         4.63423020      -0.20533135       0.19367467
H        -4.05669661       1.66772680       0.08565595
H        -5.42134169       2.40738444       1.95030854
H        -5.60224068       1.03914708       4.01172774
H        -4.35818578      -1.10281260       4.17018736
H        -2.96662399      -1.86989131       2.33913833
