30
lig_162 free ligand  charge=0 uhf=0  ETKDGv3 + MMFF94s  smiles=Cc1ccn(-c2cncc(-n3ccc(C)n3)n2)n1
C        -5.74263793       0.77689516      -0.29378446
C        -4.27289155       0.79841493      -0.09839452
C        -3.50354290       1.75992047       0.58921080
C        -2.20840626       1.31880090       0.47798722
N        -2.24168154       0.14795011      -0.24733828
C        -1.12270155      -0.65085925      -0.60071272
C        -1.32058757      -1.80909670      -1.33867805
N        -0.29492176      -2.61789456      -1.70977382
C         0.94101914      -2.21976592      -1.31137894
C         1.16064647      -1.06338254      -0.57185844
N         2.48606639      -0.69817627      -0.18263680
C         3.67191727      -1.35837938      -0.44233758
C         4.68046349      -0.62415270       0.13493080
C         4.03325453       0.47407050       0.73119378
C         4.63895968       1.59138244       1.49447814
N         2.71196397       0.43214256       0.54161210
N         0.12072218      -0.26031155      -0.20605808
N        -3.51308463      -0.17948805      -0.60658292
H        -6.21673674       1.64220901       0.18037554
H        -6.17489160      -0.12848144       0.14429274
H        -5.98843848       0.79817036      -1.36036430
H        -3.84455264       2.65163483       1.09622010
H        -1.27077496       1.71877407       0.84055235
H        -2.30519243      -2.13416393      -1.66092889
H         1.73295604      -2.88852399      -1.62518106
H         3.71496963      -2.27855499      -1.00382106
H         5.73767537      -0.85043917       0.12656065
H         4.23897397       1.62208197       2.51309052
H         5.72600614       1.48037638       1.56082575
H         4.42544825       2.54884674       1.00849793
