88
lig_105 free ligand  charge=0 uhf=0  ETKDGv3 + MMFF94s  smiles=CCCCCCCCOc1cc(C(=O)Nc2ccc(C(C)(C)C)cc2)nc(C(=O)Nc2ccc(C(C)(C)C)cc2)c1
C         9.15478118      -6.32205029      -0.91377627
C         7.66689337      -6.27564037      -1.22354680
C         7.13188656      -4.85963553      -1.45000588
C         7.31044813      -3.88173187      -0.28335844
C         6.59224880      -4.32230449       0.99413637
C         6.76601711      -3.34183661       2.15919845
C         6.23771207      -1.92570969       1.92579257
C         4.74890512      -1.87035674       1.59165221
O         4.37270538      -0.49269041       1.50867647
C         3.06767220      -0.21485741       1.21345125
C         2.76254326       1.14088285       1.14118403
C         1.45977783       1.51600637       0.84319645
C         1.10987121       2.97434624       0.75004819
O         1.96154216       3.82080356       0.98960392
N        -0.20395218       3.19278416       0.38006720
C        -0.86553177       4.42045979       0.20227208
C        -2.20534167       4.37753371      -0.18981220
C        -2.93707568       5.55675886      -0.38788529
C        -2.35165535       6.81703565      -0.19963719
C        -3.11942543       8.13383752      -0.40653420
C        -4.59018183       7.93738523      -0.83870610
C        -3.13453611       8.93874714       0.91096700
C        -2.42879189       8.97059609      -1.50505589
C        -1.00125218       6.84001217       0.19534903
C        -0.26857394       5.66168205       0.39348668
N         0.44489629       0.63372725       0.61800007
C         0.78528136      -0.68417369       0.70094978
C        -0.32079731      -1.67378031       0.46360073
O        -0.07266345      -2.87310303       0.47576519
N        -1.54842621      -1.07527608       0.25440151
C        -2.78572886      -1.69253373       0.00047591
C        -2.96476348      -3.06823529      -0.09453684
C        -4.23464535      -3.60280476      -0.35179419
C        -5.36500576      -2.78218155      -0.52211420
C        -6.74118174      -3.40966937      -0.80275157
C        -6.68121161      -4.22991694      -2.10946882
C        -7.13491446      -4.34109447       0.36400001
C        -7.87759239      -2.37486649      -0.96472433
C        -5.16566556      -1.39768136      -0.42284923
C        -3.89604802      -0.86181732      -0.16580869
C         2.06453199      -1.14889552       0.98934294
H         9.49617380      -7.36114539      -0.86633902
H         9.37800200      -5.85656152       0.05071281
H         9.73397046      -5.81040372      -1.68886406
H         7.10984971      -6.77145541      -0.42129799
H         7.48234868      -6.86135494      -2.13239907
H         6.06490321      -4.92699066      -1.69669061
H         7.62472650      -4.43432546      -2.33338595
H         6.91761338      -2.91147030      -0.60840511
H         8.37628926      -3.73044321      -0.07840027
H         5.52702815      -4.47732354       0.78855990
H         6.98752237      -5.29090659       1.32112166
H         7.83150043      -3.27728070       2.41287436
H         6.26593313      -3.76297611       3.04042765
H         6.41974550      -1.32965374       2.82964104
H         6.81027083      -1.42393424       1.13671188
H         4.56367316      -2.35865832       0.62857245
H         4.17696855      -2.36713350       2.38429043
H         3.53157558       1.88910812       1.31194620
H        -0.74066349       2.34873965       0.21644593
H        -2.70668037       3.42711148      -0.35082352
H        -3.97460825       5.45454464      -0.69336106
H        -5.16016685       7.37802152      -0.08769905
H        -5.09466392       8.90181304      -0.97313571
H        -4.66244612       7.40086219      -1.79196473
H        -3.70650043       9.86746359       0.80026428
H        -3.59229845       8.35965279       1.72176372
H        -2.12707560       9.22034554       1.23633587
H        -2.97693696       9.90044488      -1.69697350
H        -1.40655242       9.25273027      -1.23015347
H        -2.37421593       8.41468248      -2.44859861
H        -0.48804156       7.78581792       0.35807791
H         0.76890055       5.75525653       0.69856235
H        -1.53580326      -0.06245994       0.29776252
H        -2.13808336      -3.76122062       0.02516541
H        -4.32209402      -4.68563581      -0.41679446
H        -6.37406091      -3.60297918      -2.95498583
H        -7.66015792      -4.66005554      -2.35145739
H        -5.97304894      -5.06318372      -2.04377844
H        -8.12909929      -4.77501805       0.20519000
H        -6.43618183      -5.17664197       0.48138159
H        -7.15726100      -3.79487423       1.31449171
H        -8.00733198      -1.77272382      -0.05787715
H        -8.83643748      -2.86883204      -1.16299288
H        -7.68704079      -1.69408650      -1.80258339
H        -5.98784904      -0.69746172      -0.54126066
H        -3.79710794       0.21809668      -0.09727189
H         2.24266105      -2.21725615       1.03394223
