141
lig_086 free ligand  charge=0 uhf=0  ETKDGv3 + MMFF94s  smiles=CCCCCCCCN(CCCCCCCC)C(=O)COCC(=O)NCCOCCNC(=O)COCC(=O)N(CCCCCCCC)CCCCCCCC
C        -8.93759741       1.90512579      -5.73893741
C        -9.37452306       3.15249206      -4.98639179
C        -9.34848105       2.98935236      -3.46513508
C        -7.93894833       2.79268037      -2.90009450
C        -7.96192653       2.73150170      -1.37055773
C        -6.56725069       2.65912600      -0.73922869
C        -5.71839406       1.44611659      -1.13381150
C        -6.30349837       0.08463463      -0.74106956
N        -6.32334093      -0.13850888       0.70728006
C        -7.61952014      -0.06513468       1.38778551
C        -8.44409579      -1.33940783       1.18638418
C        -9.76053687      -1.27490125       1.96293105
C       -10.59008677      -2.54291730       1.75209010
C       -11.87305127      -2.57650460       2.58778247
C       -12.86889607      -1.44229404       2.32368007
C       -13.33672467      -1.29608719       0.87393160
C       -14.04524198      -2.53029127       0.33804452
C        -5.13214959      -0.51481042       1.32666557
O        -4.08804632      -0.68093288       0.68785458
C        -5.12566174      -0.70923610       2.84723546
O        -5.86877092      -1.87042725       3.20916923
C        -5.63874704      -2.26934147       4.55725129
C        -4.34354889      -3.06133558       4.77938097
O        -3.86217992      -3.24101577       5.89379019
N        -3.79454701      -3.55740314       3.61978769
C        -2.51676823      -4.23718816       3.58639447
C        -1.33213970      -3.28563372       3.80528747
O        -1.32659971      -2.14874452       2.93421337
C        -1.16435734      -2.48220634       1.55024247
C        -0.77711390      -1.21862353       0.77914010
N         0.54924254      -0.74876481       1.14738382
C         1.69382850      -1.29714380       0.60981690
O         1.67472215      -2.20247532      -0.22004870
C         2.98907013      -0.67320531       1.15777756
O         4.20039814      -1.09207640       0.54608447
C         4.37718240      -0.54640884      -0.75642626
C         4.81021159       0.92837573      -0.74986574
O         3.96556715       1.80690406      -0.95153715
N         6.14572115       1.23326388      -0.48178998
C         7.14347964       0.23311171      -0.07337663
C         7.90942992      -0.36837028      -1.25272685
C         8.93064514      -1.42913773      -0.83317239
C        10.14512047      -0.82726170      -0.11958646
C        11.21401347      -1.88897577       0.14882002
C        12.42365286      -1.35144094       0.91946989
C        13.23082810      -0.31461840       0.13627585
C        14.48928640       0.09274106       0.88713046
C         6.52239313       2.64932531      -0.40862714
C         6.53657902       3.40048582      -1.74757474
C         7.61499831       2.97523460      -2.74572168
C         9.04096847       3.17407950      -2.22544534
C        10.07990716       2.72083099      -3.25355630
C        11.49958275       2.85799282      -2.70023288
C        12.53998548       2.36156650      -3.70319285
C        13.95010189       2.48318869      -3.14776600
H        -9.07254902       2.05005927      -6.81567047
H        -7.88101404       1.68111508      -5.56588256
H        -9.53058970       1.03595769      -5.43738751
H        -8.74202208       3.99749903      -5.28225174
H       -10.39820450       3.40131588      -5.29081359
H        -9.98469961       2.14428556      -3.17488374
H        -9.79244317       3.88729644      -3.01770458
H        -7.29377825       3.61710263      -3.22600789
H        -7.51386196       1.86522302      -3.29641439
H        -8.57176269       1.88116631      -1.04769951
H        -8.45918100       3.63009595      -0.98391180
H        -6.01403333       3.56634719      -1.01387595
H        -6.67225038       2.68949943       0.35176177
H        -4.72806611       1.56399007      -0.67700680
H        -5.55077355       1.45631870      -2.21680642
H        -7.30967653      -0.04568930      -1.15117185
H        -5.68280649      -0.69880782      -1.19330490
H        -7.47822968       0.11339084       2.45601344
H        -8.16219092       0.80299027       1.00088900
H        -7.86750845      -2.21458576       1.50729605
H        -8.65569528      -1.48241155       0.12001783
H       -10.32606053      -0.39586186       1.63420502
H        -9.55042644      -1.14722182       3.03168313
H        -9.98442526      -3.41584999       2.02676383
H       -10.82984379      -2.65853640       0.68895731
H       -11.60256272      -2.55475572       3.65115193
H       -12.36995955      -3.54039475       2.42515173
H       -12.43127245      -0.49071022       2.64794677
H       -13.74621586      -1.60106970       2.96367133
H       -12.49225035      -1.04645765       0.22244956
H       -14.02904964      -0.44711003       0.82005816
H       -14.43779785      -2.33224549      -0.66453189
H       -13.36470167      -3.38357493       0.26454763
H       -14.88529700      -2.81124025       0.98103206
H        -4.07946028      -0.80653437       3.16030802
H        -5.53665680       0.17785686       3.33970903
H        -6.46478472      -2.92768806       4.84577543
H        -5.64908087      -1.39792853       5.22153655
H        -4.26290813      -3.33722609       2.74625217
H        -2.51271930      -5.01531227       4.35720549
H        -2.44704735      -4.72464032       2.60917801
H        -1.36187912      -2.89002795       4.82605244
H        -0.38463029      -3.82683838       3.70152495
H        -0.39561201      -3.25465083       1.43511377
H        -2.11585143      -2.86200402       1.16492934
H        -1.46581746      -0.39980387       1.00698154
H        -0.79565221      -1.41411055      -0.29791523
H         0.61070602      -0.05527569       1.88124950
H         2.90420480       0.41914688       1.13890807
H         3.05175506      -0.96799740       2.21174002
H         3.46367416      -0.63938783      -1.35475225
H         5.13092987      -1.14652873      -1.27052256
H         6.64544311      -0.56791572       0.47967195
H         7.82982564       0.70498498       0.63728138
H         7.20565978      -0.82147813      -1.95931016
H         8.42954723       0.41498290      -1.80623259
H         8.45162704      -2.18196806      -0.19606933
H         9.27284210      -1.94854491      -1.73702115
H         9.83806570      -0.37584986       0.83016702
H        10.56199871      -0.02759937      -0.74159599
H        10.76901554      -2.70467750       0.73207836
H        11.55004689      -2.32555322      -0.79962235
H        13.07433607      -2.19934739       1.16729456
H        12.09150080      -0.92006511       1.87162501
H        12.62767853       0.58146626      -0.04301626
H        13.51193240      -0.72081103      -0.84216741
H        15.14386301      -0.76879831       1.05309628
H        15.04837939       0.83797078       0.31258791
H        14.24134624       0.52930090       1.85988389
H         7.48446130       2.75211883       0.10251056
H         5.78569679       3.13907753       0.24166584
H         5.56217300       3.30744818      -2.24012237
H         6.66793440       4.46897967      -1.53380133
H         7.48895316       3.57235905      -3.65800920
H         7.45136158       1.93472344      -3.04312699
H         9.19877451       4.23227779      -1.98444514
H         9.19195428       2.60918617      -1.29987112
H         9.97936941       3.31732350      -4.16824042
H         9.89433861       1.67498206      -3.52679157
H        11.58774539       2.28468536      -1.76946016
H        11.69726110       3.90789360      -2.45209088
H        12.34334094       1.31304773      -3.95562758
H        12.46702824       2.93875799      -4.63221302
H        14.19079498       3.52490495      -2.91289027
H        14.67860383       2.12297226      -3.88082709
H        14.06495851       1.88968076      -2.23519678
