169
lig_022 free ligand  charge=0 uhf=0  ETKDGv3+randomCoords + MMFF94s  smiles=CCCCC(CC)CN(CC(CC)CCCC)C(=O)CN(CC(=O)N(CC(CC)CCCC)CC(CC)CCCC)CC(=O)N(CC(CC)CCCC)CC(CC)CCCC
C         3.68464055      -7.44743169       3.43701318
C         3.13810106      -7.02024489       2.08289922
C         1.69560631      -6.53405114       2.19327257
C         1.02926080      -6.18643930       0.85393495
C         1.61035337      -4.93005592       0.15203647
C         2.73689200      -5.32508375      -0.83034844
C         3.84345242      -4.28247687      -0.91958583
C         0.44796736      -4.19872268      -0.57293163
N         0.77574174      -2.86962281      -1.09726213
C         1.01908787      -2.74799224      -2.53802530
C        -0.19696368      -2.29566923      -3.38309884
C         0.27605136      -1.82878522      -4.78031040
C         0.93019430      -2.90619975      -5.63511341
C        -1.30063990      -3.37026590      -3.50732639
C        -2.39511914      -3.21307778      -2.44352695
C        -3.48091476      -4.28775889      -2.53154823
C        -2.99336025      -5.67193746      -2.13133121
C         0.81410404      -1.80713407      -0.18375862
O         0.64578387      -2.01472008       1.02342309
C         1.15546803      -0.39099437      -0.71584633
N         0.45560146       0.66807948       0.04759300
C         0.27244107       1.89506063      -0.76159333
C        -0.82726778       1.73912843      -1.83883070
O        -1.48405700       0.70237461      -1.96114745
N        -1.05853734       2.83973625      -2.67888830
C        -2.23935100       2.80352496      -3.55678610
C        -3.54357641       3.40637004      -2.96145451
C        -3.95991380       2.67511579      -1.66536365
C        -5.36952257       3.00397113      -1.18913777
C        -3.49205061       4.93770518      -2.76208747
C        -3.33775914       5.71814411      -4.07494506
C        -3.39414354       7.23598846      -3.88103969
C        -2.20508539       7.79030375      -3.11103935
C        -0.17915621       4.00883954      -2.74675079
C         1.12842066       3.80281909      -3.55993538
C         2.01059052       5.05918274      -3.36525875
C         3.45974752       4.85463557      -3.79026758
C         0.86018962       3.54099873      -5.06161168
C         0.76056847       2.04484235      -5.38768767
C         0.51040406       1.76436088      -6.87110779
C        -0.87687932       2.17908955      -7.33636033
C         1.14098698       0.97725123       1.32358649
C         0.15463402       1.52576444       2.38080636
O        -0.86898586       2.14291507       2.07277662
N         0.49055230       1.30596162       3.72810174
C         1.88211000       1.41309915       4.18213096
C         2.37589236       0.24515582       5.06149404
C         3.55735039       0.72730855       5.93265790
C         4.06462749      -0.31704055       6.91727697
C         2.69102901      -1.02511038       4.23919759
C         3.93752624      -0.93227280       3.34877504
C         4.16350274      -2.17929519       2.49133820
C         4.46367153      -3.42720327       3.30627314
C        -0.56188123       1.54124223       4.72884223
C        -1.80523239       0.62782583       4.58909204
C        -3.06333798       1.25094888       5.23618099
C        -2.88140932       1.88084014       6.61162256
C        -1.55226077      -0.86416863       4.93694512
C        -1.87447840      -1.37426359       6.34767042
C        -0.79204580      -1.12448749       7.39620410
C         0.32263210      -2.15871955       7.33446059
H         3.66425373      -6.61572428       4.14847982
H         4.72129820      -7.78419070       3.33773197
H         3.09834612      -8.27202014       3.85485305
H         3.19506680      -7.86764220       1.39041621
H         3.77720932      -6.22564284       1.68748236
H         1.09619453      -7.31995350       2.67062910
H         1.64914943      -5.66310606       2.85890640
H        -0.03219511      -6.02135172       1.07991594
H         1.06039161      -7.05276810       0.18149088
H         2.01673628      -4.26517538       0.92297133
H         3.20480082      -6.26752816      -0.52864622
H         2.32685970      -5.51307673      -1.82900813
H         4.59780130      -4.59852665      -1.64725592
H         3.46974192      -3.30477449      -1.22873368
H         4.34231247      -4.16490002       0.04710954
H        -0.37904407      -4.06337743       0.13592704
H         0.05953836      -4.82492953      -1.38310729
H         1.83871884      -2.03219077      -2.66920380
H         1.39927288      -3.70635541      -2.90651439
H        -0.64289087      -1.41700978      -2.91020083
H         0.98523059      -1.00079842      -4.65938845
H        -0.58102709      -1.41709046      -5.32813055
H         1.85087480      -3.27833786      -5.17657144
H         1.19386398      -2.49339129      -6.61446168
H         0.25873453      -3.75350267      -5.80102956
H        -1.79166437      -3.28660308      -4.48543544
H        -0.85502344      -4.36935985      -3.47319882
H        -2.87392490      -2.23489358      -2.58005603
H        -1.97040107      -3.20754943      -1.43665906
H        -3.89422504      -4.32277867      -3.54611105
H        -4.30356306      -4.00485394      -1.86386740
H        -2.55953775      -5.66028793      -1.12640389
H        -2.24113796      -6.05188647      -2.82830087
H        -3.82988503      -6.37814795      -2.12976928
H         0.87366533      -0.32403187      -1.76579318
H         2.24396837      -0.26117235      -0.67420281
H        -0.04882190       2.72960061      -0.13020767
H         1.22348854       2.17314682      -1.22204084
H        -2.44541455       1.75904741      -3.82214672
H        -1.98922118       3.29350056      -4.50112417
H        -4.33025564       3.20878897      -3.70371750
H        -3.25501854       2.89979369      -0.85661205
H        -3.92242629       1.59344446      -1.83992567
H        -6.09998886       2.86467515      -1.99208162
H        -5.64675699       2.34219835      -0.36187500
H        -5.44488910       4.03097776      -0.82175820
H        -2.69339886       5.19124851      -2.05806102
H        -4.42396849       5.27703768      -2.29684305
H        -4.15006265       5.42987300      -4.75367913
H        -2.40229249       5.46113480      -4.58083024
H        -4.32346611       7.51540677      -3.37139195
H        -3.41977188       7.71104851      -4.86906547
H        -2.19381076       7.43379937      -2.07709016
H        -1.26122225       7.50453526      -3.58615592
H        -2.25256127       8.88368204      -3.08371793
H         0.07388783       4.29255874      -1.71979391
H        -0.73157695       4.85395910      -3.16371563
H         1.67723224       2.94761127      -3.15125326
H         2.01878411       5.33953308      -2.30454172
H         1.58367855       5.90804426      -3.91317059
H         3.90655557       4.00804036      -3.25926420
H         3.55307149       4.67480458      -4.86427981
H         4.04725507       5.74778404      -3.55368883
H         1.66985809       3.95179293      -5.67405690
H        -0.04297163       4.07416953      -5.37515542
H         1.70610630       1.56394658      -5.10670397
H        -0.01998168       1.56156417      -4.79433379
H         1.26882441       2.26690326      -7.48230236
H         0.62591134       0.68775236      -7.04497800
H        -1.65313548       1.69977992      -6.73147234
H        -1.01388535       3.26265492      -7.27969338
H        -1.02806584       1.87983021      -8.37849305
H         1.94592708       1.70562228       1.17010557
H         1.59171939       0.07584449       1.74176868
H         1.92538272       2.35102185       4.75222907
H         2.55517673       1.57314134       3.33688412
H         1.56923201      -0.02150311       5.75174285
H         3.23428974       1.60124425       6.51289736
H         4.38660633       1.06906811       5.30261862
H         4.83306396       0.12021472       7.56303237
H         4.51275072      -1.17381517       6.40649026
H         3.25398727      -0.67891415       7.55664692
H         1.82001474      -1.27997922       3.62444444
H         2.81281261      -1.86203764       4.93617684
H         3.85421454      -0.07398764       2.67456700
H         4.83017223      -0.76403666       3.96101304
H         5.01109465      -1.98910467       1.82200761
H         3.29222586      -2.35767604       1.85306120
H         3.58519517      -3.76032855       3.86655575
H         4.76372603      -4.24387325       2.64343284
H         5.28067985      -3.25066302       4.01286099
H        -0.85929412       2.59133295       4.61273560
H        -0.13586421       1.44098809       5.73068007
H        -2.05283466       0.59334162       3.51946761
H        -3.42612607       2.04379859       4.56791868
H        -3.86897276       0.50809864       5.27243559
H        -3.84764267       2.23751626       6.98400016
H        -2.21209695       2.74536851       6.57116720
H        -2.48448463       1.17816722       7.34541192
H        -2.20506471      -1.44028492       4.26443799
H        -0.53450296      -1.15096935       4.65139770
H        -2.04768076      -2.45712652       6.28450064
H        -2.82523056      -0.96109343       6.69595329
H        -1.24928972      -1.18385686       8.39135859
H        -0.37628945      -0.11826244       7.30330190
H        -0.06363261      -3.15957615       7.55377940
H         1.09340252      -1.92805939       8.07608282
H         0.79258207      -2.18883675       6.34891384
