72
lig_143 free ligand  charge=0 uhf=0  ETKDGv3 + MMFF94s  smiles=CCN(C(=O)c1cccc(-c2cccc(C(=O)N(CC)c3cc(C)ccc3C)n2)n1)c1cc(C)ccc1C
C         3.07038125      -1.20767889      -1.24854442
C         3.71769634      -0.98554218       0.11226531
N         4.54737741       0.23231503       0.14277949
C         4.06337597       1.55521325       0.19736283
O         4.80097888       2.54557409       0.23944688
C         2.59228278       1.84521325       0.18957840
C         2.15861402       3.00908806      -0.43735027
C         0.80115785       3.29992005      -0.43458319
C        -0.07696250       2.42753291       0.20106434
C         0.42072243       1.28382854       0.82863494
C        -0.46551205       0.32232545       1.52558344
C         0.02572108      -0.59629241       2.45533916
C        -0.85216982      -1.47346973       3.08465401
C        -2.20270425      -1.42096618       2.76754311
C        -2.62955371      -0.49582174       1.82009277
C        -4.09401514      -0.43601396       1.50372199
O        -4.85263811      -0.69455917       2.44410033
N        -4.54908420      -0.11971909       0.20748914
C        -3.69398913       0.21969400      -0.94411296
C        -3.00356152      -1.00530352      -1.52963961
C        -5.95737402      -0.14249848      -0.05559258
C        -6.56160724       1.03705039      -0.52747597
C        -7.93385539       1.09571717      -0.80137581
C        -8.56521199       2.37884080      -1.25192273
C        -8.71430742      -0.03865695      -0.57676934
C        -8.12586343      -1.21952219      -0.12091298
C        -6.74373766      -1.29655219       0.12529592
C        -6.18491635      -2.62064670       0.56777534
N        -1.78835046       0.37623244       1.20949115
N         1.75042026       0.99296144       0.82667214
C         5.96267931       0.01622026       0.08797547
C         6.55356411      -0.76034569       1.10130113
C         7.93356205      -0.99816767       1.12792868
C         8.53924724      -1.84004489       2.21069074
C         8.72759775      -0.47253787       0.10838282
C         8.15279287       0.28980144      -0.90995019
C         6.76808906       0.53116481      -0.94607260
C         6.22614528       1.32346234      -2.10365339
H         3.83353470      -1.31532615      -2.02658752
H         2.41950687      -0.37886015      -1.53870453
H         2.46827593      -2.12154852      -1.23476771
H         4.32941759      -1.86806408       0.33321879
H         2.97055102      -0.94678831       0.90606421
H         2.86717467       3.67895083      -0.91573541
H         0.43019993       4.20125015      -0.91477790
H        -1.14059107       2.64923245       0.21830317
H         1.08365000      -0.62122920       2.70217047
H        -0.48667931      -2.18409139       3.82087707
H        -2.91133267      -2.08597698       3.25254983
H        -4.29341421       0.67234850      -1.74264550
H        -2.97084527       0.98458001      -0.65803488
H        -2.38340968      -0.71608687      -2.38383426
H        -3.74176727      -1.73563390      -1.87751891
H        -2.36187009      -1.50773062      -0.80123409
H        -5.96095459       1.93619706      -0.64583777
H        -8.86379766       2.97442232      -0.38378954
H        -7.86772954       2.96393924      -1.86054835
H        -9.44904649       2.18439970      -1.86858163
H        -9.78728033      -0.01343126      -0.75263546
H        -8.75613728      -2.09226332       0.03847465
H        -6.73453032      -3.44467251       0.09861880
H        -6.26908833      -2.72756129       1.65305547
H        -5.13952425      -2.74225914       0.26924656
H         5.93510992      -1.15191507       1.90588561
H         8.50629204      -2.89609048       1.92573992
H         9.58109493      -1.55567026       2.39214724
H         7.99887413      -1.70997959       3.15424398
H         9.80092076      -0.64777868       0.09920472
H         8.79544575       0.69129438      -1.69106336
H         6.80485067       1.12054283      -3.01201493
H         5.19163627       1.05271255      -2.33435116
H         6.28447160       2.39527152      -1.89348582
