63
lig_004 free ligand  charge=0 uhf=0  ETKDGv3 + MMFF94s  smiles=CC(C)(C)c1ccc(NC(=O)c2cc(=O)cc(C(=O)Nc3ccc(C(C)(C)C)cc3)o2)cc1
C         8.16695703       0.12741227       2.76643552
C         7.70653882       1.09668558       1.65630422
C         8.92869680       1.36679177       0.74975003
C         7.30423263       2.44435085       2.29340160
C         6.50163878       0.49597100       0.91200206
C         6.51679396       0.21880126      -0.46217121
C         5.39874644      -0.32885058      -1.10685950
C         4.22821270      -0.61553306      -0.39941346
N         3.15240219      -1.17038282      -1.12561354
C         1.89607381      -1.48315041      -0.64647944
O         1.45262703      -1.25071493       0.47295695
C         0.98544852      -2.11410499      -1.65771664
C         1.44235450      -3.01791346      -2.53463792
C         0.49027536      -3.62906319      -3.47672847
O         0.87303197      -4.42716338      -4.32135625
C        -0.92183903      -3.23983869      -3.36503442
C        -1.26401616      -2.34975219      -2.42506174
C        -2.70795880      -1.95726991      -2.29604707
O        -3.54351207      -2.37827299      -3.08632643
N        -2.91899121      -1.11265113      -1.22476592
C        -4.13468645      -0.53774055      -0.80572965
C        -5.35499817      -0.73476473      -1.44490731
C        -6.52285839      -0.12322053      -0.96344865
C        -6.50649096       0.70311513       0.17037212
C        -7.76953645       1.38621405       0.72190054
C        -7.57849510       2.91830445       0.70953717
C        -9.04987691       1.07898151      -0.08728069
C        -8.02211681       0.91770064       2.17124782
C        -5.26502812       0.89106063       0.80342885
C        -4.09903699       0.28165791       0.32414352
O        -0.35332122      -1.76817256      -1.55891977
C         4.19743186      -0.34951116       0.96553951
C         5.31626236       0.19805696       1.60866962
H         9.04773887       0.51648376       3.29061028
H         7.39096976      -0.03582137       3.52230992
H         8.43195667      -0.85177525       2.35019311
H         9.29859521       0.44499113       0.28581502
H         8.68937262       2.07894141      -0.04859064
H         9.75970370       1.79405930       1.32382823
H         6.51039717       2.32961863       3.03959233
H         6.94256572       3.14743847       1.53369404
H         8.15610915       2.91134144       2.80147886
H         7.39460494       0.41952334      -1.07035126
H         5.46783363      -0.52264857      -2.17427163
H         3.33049940      -1.31192605      -2.11103736
H         2.46772116      -3.35714903      -2.59634400
H        -1.62598269      -3.69887457      -4.04820281
H        -2.10360242      -0.88252489      -0.66620545
H        -5.44252818      -1.36099986      -2.32727571
H        -7.44184368      -0.31949687      -1.50943356
H        -7.36653343       3.28121226      -0.30321344
H        -6.75166891       3.23817471       1.35311760
H        -8.47902396       3.43185315       1.06623147
H        -9.27471047       0.00605654      -0.09490948
H        -8.96137600       1.41701234      -1.12635773
H        -9.92096509       1.58727203       0.34346861
H        -7.20443970       1.19575996       2.84522539
H        -8.93748556       1.36408871       2.57714264
H        -8.13243574      -0.17214065       2.21992812
H        -5.18524953       1.51969422       1.68784039
H        -3.16688041       0.46116879       0.85409182
H         3.32107118      -0.55643343       1.57149845
H         5.24062463       0.38806759       2.67775056
