138
lig_056 free ligand  charge=0 uhf=0  ETKDGv3+randomCoords + MMFF94s  smiles=CCCCCCCCN(CC(=O)N(CCCCCCCC)CCCCCCCC)CC(=O)N(CCCCCCCC)CCCCCCCC
C         9.03094711       2.26108107       0.31373480
C         7.85764794       1.30956013       0.49299981
C         6.98211533       1.72193773       1.67706029
C         5.85486708       0.72921030       1.97961167
C         4.79234693       0.66337262       0.87908784
C         3.66869877      -0.33227409       1.18512056
C         2.73308793       0.12630961       2.31037562
C         1.64864082      -0.91458225       2.63691336
N         0.77053988      -1.21211534       1.49609849
C         0.13579967      -2.53621530       1.68348013
C        -0.68249806      -3.02079102       0.47567660
O        -1.91611369      -2.95859334       0.52786368
N        -0.00759700      -3.58866170      -0.60446745
C         1.44242722      -3.48325892      -0.79564303
C         2.19567720      -4.71521430      -0.28773868
C         3.70590684      -4.46921021      -0.31342780
C         4.48210650      -5.66051328       0.24869211
C         6.00172940      -5.47592491       0.18368927
C         6.51366661      -4.33054850       1.06147887
C         8.04138082      -4.26559928       1.05571558
C         8.55174064      -3.12015746       1.91575660
C        -0.77380267      -4.31143639      -1.62220640
C        -0.95496205      -3.55768015      -2.94558178
C        -1.95181177      -2.39634697      -2.90168713
C        -3.37266290      -2.75843419      -3.35239450
C        -4.10070927      -3.71971094      -2.41175136
C        -5.58353276      -3.88791087      -2.76519458
C        -6.53550544      -3.02050688      -1.93546759
C        -6.35161454      -1.52494483      -2.12647706
C        -0.24218126      -0.14769693       1.29063779
C        -0.46177976       0.17012263      -0.20682992
O         0.31157880      -0.24085272      -1.07673484
N        -1.53725415       1.01728739      -0.52191229
C        -1.66819661       1.48779297      -1.90823729
C        -3.04906422       1.24443232      -2.52346609
C        -3.10786294       1.55738883      -4.02255150
C        -3.63312819       2.95530028      -4.36722620
C        -2.76878840       4.09995484      -3.83868645
C        -3.25389509       5.45197562      -4.36914952
C        -2.36737480       6.62344354      -3.94054996
C        -2.37671715       6.87643728      -2.44077274
C        -2.47120208       1.55697317       0.47385617
C        -3.63981273       0.61128053       0.76394269
C        -4.68104058       1.18592749       1.73051124
C        -4.15656287       1.44238653       3.14747534
C        -3.79070706       2.90950133       3.39048959
C        -3.23800411       3.11545773       4.80230070
C        -2.87777180       4.58005669       5.05008855
C        -2.32643454       4.78857995       6.45149995
H         9.64243758       1.95186502      -0.53974831
H         8.68278826       3.28259124       0.13030359
H         9.66927780       2.26940327       1.20300450
H         8.23992517       0.29418153       0.64689837
H         7.27101200       1.30135528      -0.43151085
H         6.55757281       2.71697942       1.49624818
H         7.61074782       1.80562069       2.57250638
H         6.27928855      -0.26831765       2.14573631
H         5.38863276       1.03535640       2.92250942
H         5.26194902       0.35038928      -0.06019500
H         4.36832208       1.65972218       0.70660424
H         4.10210966      -1.30820311       1.43444103
H         3.08619918      -0.46913525       0.26642562
H         2.28187094       1.08860615       2.04410988
H         3.31009744       0.29702067       3.22596449
H         1.06217848      -0.58528455       3.50446244
H         2.17643346      -1.82482840       2.95172652
H         0.89531199      -3.29713149       1.89139937
H        -0.52819870      -2.52527721       2.55829865
H         1.81708676      -2.59202499      -0.29195922
H         1.65163707      -3.33494786      -1.85984707
H         1.88069373      -4.96096664       0.73252731
H         1.94928483      -5.58507420      -0.90792991
H         4.02818082      -4.26993064      -1.34251723
H         3.92627767      -3.57248436       0.27541006
H         4.21905805      -6.56090504      -0.32005072
H         4.18027082      -5.84298279       1.28725321
H         6.30712203      -5.30926264      -0.85648952
H         6.47349757      -6.41277237       0.50517552
H         6.11693569      -3.37431515       0.70250078
H         6.15591627      -4.46610513       2.08925798
H         8.45638230      -5.20877921       1.42956060
H         8.40456325      -4.13447781       0.02975441
H         8.23153389      -3.23750908       2.95593941
H         8.17995096      -2.15856306       1.54842351
H         9.64563811      -3.09060800       1.89791735
H        -0.23679656      -5.24640085      -1.82056035
H        -1.74407393      -4.60323523      -1.21164116
H        -1.26445366      -4.27295187      -3.71747179
H         0.01294136      -3.16311801      -3.27405721
H        -1.97764834      -1.92928281      -1.91336558
H        -1.58905767      -1.62412912      -3.59281660
H        -3.94203166      -1.82910899      -3.44806539
H        -3.33594599      -3.19340634      -4.35912417
H        -3.99179385      -3.39950445      -1.36968910
H        -3.62534072      -4.70392465      -2.49708322
H        -5.75080679      -3.71479613      -3.83494262
H        -5.85839933      -4.93377053      -2.57642154
H        -7.56490007      -3.28210569      -2.20892043
H        -6.42343866      -3.26403460      -0.87221456
H        -6.40942297      -1.25120684      -3.18444388
H        -5.39022908      -1.18985980      -1.72821321
H        -7.13581679      -0.97872821      -1.59234140
H         0.09715654       0.79652555       1.73321553
H        -1.18023854      -0.40845505       1.78614644
H        -0.91018777       1.01333419      -2.53976703
H        -1.43023374       2.55581955      -1.89356652
H        -3.29407203       0.18616330      -2.38776717
H        -3.82238010       1.80996073      -1.99218764
H        -2.13102573       1.39695195      -4.49366730
H        -3.79245938       0.83630568      -4.48812863
H        -3.70084707       3.02872079      -5.45995026
H        -4.65552246       3.06392308      -3.98430086
H        -2.81085369       4.10712069      -2.74538534
H        -1.72476423       3.94250577      -4.13361919
H        -4.28459130       5.63066275      -4.03922869
H        -3.27371538       5.42188524      -5.46562008
H        -2.72026518       7.52906208      -4.44830099
H        -1.33737040       6.45384167      -4.27520001
H        -1.91678434       6.05001250      -1.89111599
H        -3.39788234       7.01333357      -2.07133731
H        -1.80856244       7.78331258      -2.20981126
H        -2.83999332       2.52524658       0.11571162
H        -1.91605083       1.75820629       1.39301433
H        -3.27235690      -0.34383617       1.15465409
H        -4.15520525       0.36215385      -0.16894175
H        -5.12709589       2.09358470       1.30705387
H        -5.49220816       0.44952012       1.80027694
H        -4.94605914       1.17031749       3.85988736
H        -3.30232026       0.79079009       3.36612549
H        -3.05052095       3.24818403       2.65903920
H        -4.68242907       3.53347010       3.25288055
H        -2.34792581       2.48995381       4.94256988
H        -3.98169067       2.78991950       5.53983584
H        -3.76482057       5.20982603       4.91513418
H        -2.13152546       4.90919503       4.31761083
H        -2.07546897       5.84247620       6.60714182
H        -1.41907692       4.19655381       6.60820019
H        -3.06130592       4.49881521       7.20934428
