43
lig_125 free ligand  charge=0 uhf=0  ETKDGv3 + MMFF94s  smiles=CCCCN(C)C(=O)CC(=O)N(C)CCCC
C         5.41087899       0.65538321      -1.19397778
C         3.96214818       0.41756392      -1.59064552
C         3.20737491      -0.49331662      -0.62097201
C         3.05310603       0.10940066       0.77785476
N         2.18740699      -0.71278622       1.62940662
C         2.82035059      -1.84105082       2.29968212
C         0.81059099      -0.53221375       1.77818755
O         0.12606645      -1.30645181       2.44788146
C         0.19258511       0.64278852       1.05402386
C        -1.29792883       0.79471888       1.24647538
O        -1.72220382       1.71549175       1.95236813
N        -2.15677474      -0.06190558       0.56430589
C        -1.73466197      -1.22217569      -0.20831217
C        -3.59669745       0.10265223       0.76754838
C        -4.20126943       1.24595103      -0.05612499
C        -4.17630887       1.04291759      -1.57278928
C        -5.05384923      -0.10695975      -2.04317458
H         5.48330766       1.21794071      -0.25858568
H         5.94536267      -0.29188401      -1.07124895
H         5.92218916       1.23489369      -1.96936669
H         3.94370283      -0.04255696      -2.58579858
H         3.44480030       1.38012094      -1.67737678
H         3.71724548      -1.46209777      -0.55607831
H         2.21522180      -0.69836813      -1.04160977
H         4.02529116       0.19881339       1.27508326
H         2.64704360       1.12118517       0.69950897
H         2.13300709      -2.37105302       2.96359551
H         3.18666676      -2.54198643       1.54448356
H         3.66183577      -1.47256532       2.89387781
H         0.41364685       0.59992207      -0.01626372
H         0.65414376       1.55761115       1.44591824
H        -0.66782122      -1.21976994      -0.42998498
H        -2.28068608      -1.24559408      -1.15438693
H        -1.97056533      -2.12251857       0.36693484
H        -3.76616720       0.31787475       1.83000479
H        -4.10342262      -0.84645324       0.56196664
H        -5.24029915       1.39276133       0.26406030
H        -3.67325953       2.17972310       0.17151220
H        -3.14921056       0.89401304      -1.92274952
H        -4.53482663       1.96408529      -2.04827763
H        -6.08727828       0.02633089      -1.70778114
H        -5.05733446      -0.15282899      -3.13696950
H        -4.69340773      -1.07021156      -1.67220575
