120
lig_107 free ligand  charge=0 uhf=0  ETKDGv3 + MMFF94s  smiles=CCCCCCCCP(=O)(CCCCCCCC)Cc1cccc(CP(=O)(CCCCCCCC)CCCCCCCC)[n+]1[O-]
C        -1.97852955       0.56801028      -6.96257262
C        -2.72841825      -0.24452938      -5.91921923
C        -2.48398820       0.29403393      -4.51020761
C        -3.20949322      -0.54781999      -3.45887829
C        -2.93439636      -0.02806060      -2.04693434
C        -3.60055380      -0.90490864      -0.98709687
C        -3.30435353      -0.44164358       0.44189438
C        -1.88802574      -0.76417969       0.90568959
P        -1.42435273      -0.20558288       2.54765738
O        -0.05757317      -0.72007254       2.92661430
C        -2.66132011      -0.85729754       3.68498578
C        -3.92276065      -0.02538569       3.89288329
C        -4.97242931      -0.79207076       4.70020300
C        -6.22914062       0.05356713       4.91807889
C        -7.27172208      -0.62593548       5.81170594
C        -7.86890426      -1.89127443       5.19016343
C        -9.05853108      -2.44600071       5.97812038
C        -8.68832179      -2.93637909       7.36937788
C        -1.50118546       1.58141334       2.64542734
C        -0.24684125       2.31149616       2.25205719
C         0.68702573       2.73247687       3.21105217
C         1.83830299       3.40005708       2.81784712
C         2.07048910       3.63871613       1.47050563
C         1.15386099       3.19360277       0.50483301
C         1.39944865       3.40166357      -0.96370034
P         2.23284347       2.10340190      -1.88370776
O         2.55386775       2.53529515      -3.29002598
C         3.72146592       1.66480338      -0.97023126
C         4.81182423       2.73070580      -1.03175135
C         6.08235013       2.35400505      -0.26561875
C         5.89116826       2.35107093       1.25379236
C         7.15652744       1.95608302       2.02370306
C         8.29321939       2.97245676       1.88626529
C         9.46728664       2.69407086       2.82864593
C        10.18740688       1.38811407       2.53026541
C         1.19512497       0.64304072      -1.83745034
C         1.65669847      -0.47553649      -2.76798122
C         0.78933531      -1.72570001      -2.61975857
C         1.22621825      -2.87875326      -3.52816874
C         1.00543607      -2.58581454      -5.01507532
C         1.21949332      -3.80934892      -5.91150988
C         2.66376446      -4.31150071      -5.91679976
C         2.84929523      -5.45505217      -6.90254315
N        -0.01117895       2.52730424       0.89506231
O        -0.85364937       2.13037091       0.02872447
H        -2.29782722       1.61496640      -6.94861710
H        -0.89901734       0.53498346      -6.78321968
H        -2.16875061       0.16776634      -7.96331113
H        -2.40610806      -1.29049384      -5.98028272
H        -3.80069876      -0.22164452      -6.14560440
H        -2.82549705       1.33444844      -4.44835981
H        -1.40725650       0.29586581      -4.30178503
H        -4.28864533      -0.53401323      -3.65341784
H        -2.87970474      -1.59111255      -3.53624158
H        -1.85563055      -0.00256430      -1.88022546
H        -3.29825414       1.00240196      -1.95517939
H        -4.68629917      -0.87905614      -1.14252842
H        -3.28818266      -1.94913495      -1.10859194
H        -3.50246666       0.63077282       0.53668197
H        -4.00909875      -0.95372038       1.10547037
H        -1.15160125      -0.37122808       0.20155805
H        -1.76069427      -1.85364509       0.89269820
H        -2.17115954      -0.98151586       4.65828647
H        -2.92490548      -1.86447098       3.34216467
H        -4.34618175       0.27814020       2.93188252
H        -3.66432069       0.89891228       4.42148537
H        -5.22951915      -1.71438596       4.16746136
H        -4.55035974      -1.08159383       5.67005839
H        -6.68064088       0.30267653       3.95001630
H        -5.94491833       1.00382862       5.38707327
H        -6.81566499      -0.85988482       6.78043893
H        -8.07696899       0.09360523       6.00452394
H        -7.10174455      -2.66936828       5.10628200
H        -8.20765378      -1.66647211       4.17138666
H        -9.84258075      -1.68392029       6.05659579
H        -9.48706683      -3.28409878       5.41559766
H        -9.55575517      -3.40483191       7.84543693
H        -8.36321968      -2.11268463       8.01161470
H        -7.88512025      -3.67856279       7.32382203
H        -2.35255085       1.96312785       2.07248151
H        -1.71697533       1.84929881       3.68661421
H         0.51760571       2.53285994       4.26722185
H         2.55851903       3.73027433       3.56395694
H         2.97203503       4.16966151       1.17367802
H         1.99283992       4.31690237      -1.08378414
H         0.45080115       3.62046560      -1.46798774
H         4.11856666       0.73589949      -1.39375158
H         3.44353639       1.44044690       0.06266855
H         5.07648020       2.89306935      -2.08370581
H         4.42585836       3.68820793      -0.66742818
H         6.43818037       1.37203588      -0.59955897
H         6.85768850       3.08072533      -0.53308046
H         5.10360731       1.63976258       1.52563375
H         5.55301740       3.33973325       1.58662795
H         7.48908247       0.96838397       1.68453162
H         6.89245111       1.85623536       3.08380110
H         7.90788299       3.97559817       2.10621543
H         8.66093813       2.99158092       0.85418336
H         9.11892213       2.68928892       3.86801378
H        10.18647972       3.51708230       2.73980061
H        10.52153097       1.35252010       1.48856649
H        11.06879708       1.29028546       3.17221447
H         9.54402805       0.52349345       2.71771719
H         1.14571426       0.27440045      -0.80753155
H         0.18657097       0.94716952      -2.13141393
H         2.70109829      -0.72661190      -2.55415342
H         1.62698576      -0.10560956      -3.79826606
H         0.83473256      -2.06961256      -1.57892417
H        -0.25801543      -1.48184736      -2.82454873
H         0.64985933      -3.76959524      -3.24979270
H         2.28063339      -3.10832671      -3.33786735
H        -0.02189762      -2.23085699      -5.16246626
H         1.67016500      -1.77970966      -5.34528881
H         0.93028710      -3.53795595      -6.93452259
H         0.54695561      -4.61721587      -5.59829764
H         3.34222446      -3.49319961      -6.18408201
H         2.94947158      -4.66008080      -4.91864202
H         3.88718728      -5.80225988      -6.88903322
H         2.61123834      -5.13682852      -7.92254220
H         2.20419606      -6.30167686      -6.64675251
