78
lig_133 free ligand  charge=0 uhf=0  ETKDGv3 + MMFF94s  smiles=CCCCN(CCCC)C(=O)c1ccc2ccc3ccc(C(=O)N(CCCC)CCCC)nc3c2n1
C        -5.72349549       1.28265636       2.03784586
C        -5.52233852      -0.04248994       2.75769198
C        -4.42081770       0.01960584       3.81653529
C        -3.04231777      -0.46789654       3.34533374
N        -2.41628508       0.30456619       2.26964378
C        -2.14512642      -0.39780392       1.00714373
C        -3.08274846       0.00123597      -0.13244470
C        -2.62992130      -0.51692873      -1.49989700
C        -2.52040591      -2.03146942      -1.57810752
C        -1.99368368       1.61219600       2.57576468
O        -2.18219634       2.09770874       3.69673468
C        -1.34018464       2.50948145       1.56146382
C        -1.49780123       3.87872633       1.71037566
C        -0.88744132       4.71900148       0.78991848
C        -0.12766520       4.17678503      -0.25190732
C         0.48276468       5.02101318      -1.18321154
C         1.23428243       4.48364578      -2.21742114
C         1.38431890       3.09871010      -2.32424401
C         2.13898115       2.55528533      -3.37011774
C         2.28838553       1.17946804      -3.47349821
C         1.68637284       0.37914867      -2.51613662
C         1.83491863      -1.11076000      -2.64039642
O         1.99907303      -1.55281381      -3.78202541
N         1.82831130      -1.95707094      -1.51726190
C         1.72979340      -1.50868091      -0.12330090
C         3.00048931      -0.82396042       0.38529629
C         2.79986019      -0.28347355       1.80106081
C         4.05190184       0.40770240       2.31605061
C         1.92313926      -3.40266285      -1.74288315
C         3.25740265      -4.01366922      -1.30110503
C         4.47976809      -3.51951525      -2.07888975
C         4.51776322      -4.01563791      -3.51624019
N         0.94203054       0.88542373      -1.50412802
C         0.77869132       2.22671412      -1.38733647
C         0.00982874       2.77067769      -0.34260757
N        -0.59641308       1.96734094       0.56839089
H        -6.50548512       1.18376167       1.27837662
H        -4.81216525       1.62280127       1.54267568
H        -6.03549099       2.06217529       2.74071948
H        -5.32747779      -0.84477518       2.03855745
H        -6.46814533      -0.29327897       3.25391951
H        -4.36176544       1.02592344       4.24435328
H        -4.71777768      -0.63899461       4.64351145
H        -2.35705172      -0.43900749       4.20224463
H        -3.11970374      -1.52040820       3.05055304
H        -2.22803925      -1.47629639       1.18235159
H        -1.10243417      -0.23993292       0.73694495
H        -4.09041705      -0.37403463       0.07669957
H        -3.16870096       1.09164816      -0.19359048
H        -1.66460447      -0.07283295      -1.76313649
H        -3.34831876      -0.17671584      -2.25518928
H        -2.29231792      -2.33866757      -2.60384788
H        -3.45895372      -2.50955126      -1.28086562
H        -1.71883160      -2.40858352      -0.93582270
H        -2.08649312       4.28630468       2.52668264
H        -1.00950286       5.79461637       0.89567827
H         0.37591667       6.10175705      -1.11210272
H         1.70053612       5.15363684      -2.93724092
H         2.61136746       3.19441767      -4.11271937
H         2.86394847       0.74219409      -4.28354381
H         0.86262603      -0.85798725      -0.02262893
H         1.51147543      -2.37855265       0.50864670
H         3.83330512      -1.53641181       0.37754033
H         3.29511038      -0.00384070      -0.27760513
H         1.96670090       0.42903054       1.81309289
H         2.53583602      -1.10350463       2.47886819
H         4.32238572       1.25513358       1.67798935
H         3.88650386       0.78531344       3.32991408
H         4.89881676      -0.28522972       2.34514847
H         1.10655957      -3.87011158      -1.17870759
H         1.73368476      -3.64408540      -2.79352210
H         3.19037314      -5.10469144      -1.39496291
H         3.41753276      -3.81030766      -0.23606723
H         5.38109343      -3.88120296      -1.56922708
H         4.53123757      -2.42553933      -2.06409862
H         5.44025450      -3.68369615      -4.00335331
H         3.67716780      -3.63334475      -4.10054734
H         4.49200954      -5.10938850      -3.55333995
