126
lig_097 free ligand  charge=0 uhf=0  ETKDGv3 + MMFF94s  smiles=CCCCCCCCN(CCCCCCCC)C(=O)c1ccc2ccc3ccc(C(=O)N(CCCCCCCC)CCCCCCCC)nc3c2n1
C       -10.16723950      -5.21608176       3.20711269
C        -9.42472047      -3.93679971       2.85525378
C        -7.91630474      -4.09123002       3.05515246
C        -7.17570130      -2.80157075       2.69506914
C        -5.67299750      -2.85586825       2.98931337
C        -4.92061104      -3.86256008       2.11523959
C        -3.40985129      -3.87760752       2.36754729
C        -2.65835109      -2.58310960       2.02732475
N        -2.68676789      -2.22833971       0.60689622
C        -3.62593553      -1.19109198       0.15600219
C        -3.38304440       0.20390529       0.74321431
C        -2.02437544       0.78349172       0.35555814
C        -1.75271228       2.16568752       0.95732278
C        -2.76622816       3.25966134       0.60319323
C        -3.01539427       3.47737169      -0.89199795
C        -1.76471383       3.90890559      -1.65577017
C        -2.07075284       4.15840958      -3.12445481
C        -1.85466624      -2.96324631      -0.25207614
O        -1.14540470      -3.89615573       0.12656932
C        -1.87933247      -2.67746683      -1.70812038
C        -2.54063134      -3.56514870      -2.53468290
C        -2.57094464      -3.27256737      -3.88855218
C        -1.92043895      -2.12879884      -4.37253822
C        -1.95449051      -1.84293009      -5.73909946
C        -1.29787292      -0.72528249      -6.23038714
C        -0.58608147       0.10464028      -5.36143696
C         0.09216414       1.21953123      -5.86815035
C         0.82294062       2.03124951      -5.01423033
C         0.86243605       1.69501867      -3.67236677
C         1.64209483       2.57601865      -2.74566742
O         1.65709781       3.78439573      -2.99880228
N         2.35204357       2.03951714      -1.66284799
C         2.58324874       0.60798908      -1.43404545
C         1.68344943       0.04371070      -0.33322823
C         1.90314173      -1.45143405      -0.08222002
C         2.81331773      -1.77173652       1.10936839
C         4.24825970      -1.24801118       1.02936928
C         5.06682221      -1.88960580      -0.09349327
C         6.45777719      -1.27029394      -0.25494098
C         7.36125083      -1.47300612       0.95112111
C         3.01083335       2.97432718      -0.74943627
C         4.42920173       3.31645454      -1.21421921
C         5.12418985       4.35786460      -0.33251001
C         5.30093842       3.97379757       1.14058423
C         6.10099274       2.68313282       1.33962230
C         6.36367481       2.36659483       2.81627869
C         7.74995928       2.78187065       3.31643636
C         8.00077725       4.27973101       3.29224326
N         0.18793537       0.63943297      -3.15209329
C        -0.53412358      -0.16603329      -3.97078125
C        -1.22858268      -1.28272254      -3.46612660
N        -1.23880540      -1.56232517      -2.13860451
H       -11.24328645      -5.08308552       3.05764423
H       -10.00094691      -5.49096197       4.25358860
H        -9.83690117      -6.04762646       2.57644021
H        -9.80203162      -3.11927255       3.48053996
H        -9.63684476      -3.67278317       1.81264182
H        -7.70965735      -4.35520368       4.09930503
H        -7.55673851      -4.91817208       2.43285793
H        -7.60488553      -1.97121357       3.26969721
H        -7.33396814      -2.56626132       1.63548236
H        -5.26973977      -1.85025919       2.82949701
H        -5.51375505      -3.09439292       4.04783752
H        -5.29588702      -4.87125941       2.32379194
H        -5.12295245      -3.67375104       1.05546106
H        -3.23267701      -4.10953322       3.42531832
H        -2.98137310      -4.71017956       1.79709575
H        -3.02462978      -1.75125384       2.63281772
H        -1.60663986      -2.72188064       2.30914602
H        -3.63361841      -1.11776435      -0.93431076
H        -4.63091670      -1.51986649       0.43826053
H        -3.47691484       0.18802395       1.83400237
H        -4.18244213       0.85732721       0.37564654
H        -1.23651716       0.10747123       0.70630215
H        -1.93740187       0.83037405      -0.73518679
H        -0.74951068       2.48675913       0.65171026
H        -1.71690671       2.07369049       2.05031535
H        -2.42324580       4.20280280       1.04721068
H        -3.72437260       3.03392878       1.08644207
H        -3.43190832       2.56904358      -1.34195131
H        -3.78427939       4.25290397      -0.99949575
H        -0.99375693       3.13665596      -1.58308213
H        -1.35369991       4.82293147      -1.21216114
H        -2.43661244       3.24700871      -3.60824082
H        -2.82975577       4.93852101      -3.24069039
H        -1.16830009       4.48361361      -3.65091809
H        -3.02028046      -4.45098289      -2.13363541
H        -3.09432324      -3.94673466      -4.56299468
H        -2.49028452      -2.48822369      -6.43265657
H        -1.33571440      -0.51595409      -7.29776466
H         0.06049942       1.46268364      -6.92782092
H         1.35257033       2.90257625      -5.38596276
H         3.63796508       0.48977942      -1.17152572
H         2.44776525       0.05114055      -2.36542346
H         0.64402071       0.19033746      -0.63998679
H         1.79773617       0.60876029       0.59869567
H         0.92634961      -1.89463644       0.14671060
H         2.25394930      -1.95572260      -0.98912304
H         2.35073032      -1.36421763       2.01749697
H         2.83842934      -2.86043557       1.24396661
H         4.73164774      -1.46123814       1.99030261
H         4.24274568      -0.15879126       0.92647447
H         5.16275277      -2.96629916       0.09213926
H         4.54258293      -1.78238550      -1.04902333
H         6.93895527      -1.72277632      -1.13028695
H         6.36532860      -0.19843043      -0.46507832
H         7.44960744      -2.53473612       1.20179467
H         8.36442511      -1.09053413       0.73693218
H         6.98558437      -0.93973211       1.82883640
H         3.02003174       2.53031879       0.25054780
H         2.41539345       3.89283778      -0.68667360
H         4.38895894       3.70933838      -2.23814956
H         5.03839731       2.40729128      -1.27179943
H         4.55910679       5.29709560      -0.38033144
H         6.11105051       4.57086687      -0.76218387
H         5.80169392       4.80625964       1.64582047
H         4.31990234       3.87601175       1.61991114
H         5.52120525       1.85318773       0.92174673
H         7.04187319       2.72185650       0.77862680
H         5.58600137       2.80447476       3.45324061
H         6.28899095       1.27935223       2.94655686
H         8.52277154       2.27616695       2.72539624
H         7.86343296       2.42698664       4.34797795
H         7.21582460       4.82020705       3.83021731
H         8.95804158       4.50752077       3.77230966
H         8.04988402       4.65875989       2.26736501
