161
lig_037 free ligand  charge=0 uhf=0  ETKDGv3+randomCoords + MMFF94s  smiles=CCCCCCCCCCCCN(CCCCCCCCCCCC)C(=O)COCC(=O)N(CCCCCCCCCCCC)CCCCCCCCCCCC
C        -0.09546095      -3.17610620       4.91874608
C        -0.95601740      -2.35270133       3.97267835
C        -0.86195734      -2.80359143       2.51296043
C         0.51564934      -2.55663349       1.89530098
C         0.56217663      -2.97655157       0.42475922
C         1.96302980      -2.86055777      -0.18751092
C         2.57971809      -1.45689865      -0.17653321
C         1.74976254      -0.36872366      -0.86467946
C         1.55783268      -0.62119396      -2.36303007
C         0.82327344       0.51730044      -3.07778633
C        -0.64705921       0.62320104      -2.67201444
C        -1.37196611       1.72201445      -3.44879518
N        -2.68761340       2.03739497      -2.87841684
C        -3.85026312       1.29818884      -3.37886523
C        -4.57801102       0.43280245      -2.33996268
C        -3.75296825      -0.75670914      -1.85265859
C        -4.56580206      -1.67029135      -0.93200380
C        -3.74122199      -2.88678492      -0.50572531
C        -4.41891990      -3.73940214       0.57034947
C        -5.78729419      -4.31717626       0.19443499
C        -5.74117268      -5.23007537      -1.03329603
C        -7.05954913      -5.96716661      -1.28948010
C        -8.21280422      -5.03381401      -1.66485971
C        -9.47154754      -5.82543140      -2.02203784
C       -10.62263783      -4.90386734      -2.39273338
C        -2.90966439       3.08677796      -1.97625712
O        -4.04581092       3.38715974      -1.60275279
C        -1.66816491       3.84224916      -1.46207762
O        -1.94247162       4.68073415      -0.34468788
C        -0.93108233       4.63796002       0.65160135
C         0.45628436       5.20422363       0.27244456
O         0.77144676       5.33810766      -0.91422917
N         1.33471298       5.54912289       1.30415991
C         2.53166987       6.32505602       0.94277600
C         3.83385707       5.52492741       0.98147583
C         4.02448024       4.63157221      -0.24755905
C         5.17995019       3.64818931      -0.04816140
C         5.77278285       3.09733887      -1.34807115
C         4.74649020       2.57949527      -2.35875057
C         5.44745407       1.86523788      -3.51921243
C         4.52875225       1.59244967      -4.71404554
C         4.25451423       2.85400438      -5.53999564
C         3.55784644       2.56584527      -6.87372799
C         2.15112604       1.97568250      -6.76744384
C         1.15813443       2.90731762      -6.09108680
C         1.05843541       5.38571715       2.73974123
C         0.95973137       3.94603901       3.26300530
C         2.22408835       3.11730109       3.04752143
C         2.08872493       1.71557746       3.64473103
C         3.37112744       0.90604761       3.44167654
C         3.24629730      -0.49040988       4.05174935
C         4.51175598      -1.31823020       3.82042425
C         4.35275081      -2.79081064       4.20973007
C         4.06748149      -3.00474692       5.69826500
C         3.97842839      -4.49635544       6.03181393
C         3.74548667      -4.77116535       7.51884188
C         2.38320281      -4.30969401       8.01409327
H         0.96934801      -3.04628529       4.70891712
H        -0.33538743      -4.24125493       4.84247420
H        -0.26882669      -2.86312916       5.95337861
H        -0.68013010      -1.29490692       4.05560108
H        -2.00119153      -2.43415700       4.29426156
H        -1.61300444      -2.24986405       1.93787763
H        -1.12195072      -3.86623736       2.43714002
H         1.27945740      -3.11380453       2.44770848
H         0.75398876      -1.49133214       1.98303740
H         0.23984792      -4.02195436       0.33991101
H        -0.15461576      -2.38564300      -0.15649968
H         1.92662794      -3.23526774      -1.21711079
H         2.64012128      -3.53498006       0.35223613
H         2.76551215      -1.15178738       0.85942667
H         3.56633765      -1.50816455      -0.65413017
H         2.26376463       0.59055103      -0.72742876
H         0.78290889      -0.27177334      -0.36141814
H         2.54260437      -0.74266418      -2.83068916
H         1.01120525      -1.55663368      -2.52622190
H         0.87970546       0.33817944      -4.15801777
H         1.33610716       1.46700122      -2.88374068
H        -0.72528383       0.81901600      -1.59777923
H        -1.13896318      -0.33719938      -2.85878553
H        -0.76148013       2.62952750      -3.46460663
H        -1.50232324       1.42826817      -4.49666022
H        -4.55933043       2.04072208      -3.76587967
H        -3.54843953       0.67651895      -4.22947489
H        -5.49816892       0.05713803      -2.80516287
H        -4.88870066       1.03379620      -1.47877340
H        -3.39242688      -1.33260632      -2.71310145
H        -2.87940065      -0.39452420      -1.30124762
H        -5.47203599      -1.99833774      -1.45354529
H        -4.88302954      -1.10674483      -0.04642012
H        -2.77769674      -2.54547581      -0.11017716
H        -3.50807679      -3.50199029      -1.38247679
H        -4.53571569      -3.13553583       1.47901766
H        -3.74469775      -4.56355283       0.83510477
H        -6.16138533      -4.88899334       1.05284375
H        -6.49767990      -3.49930035       0.03468644
H        -5.47604217      -4.65181034      -1.92568100
H        -4.95197815      -5.97899145      -0.89320219
H        -7.33105171      -6.55512670      -0.40430299
H        -6.89745154      -6.68237046      -2.10554125
H        -8.43843930      -4.36057656      -0.83031992
H        -7.91824237      -4.40890437      -2.51661889
H        -9.77078387      -6.45153678      -1.17340799
H        -9.26376423      -6.49657469      -2.86351271
H       -10.36661539      -4.28533080      -3.25887392
H       -10.87817253      -4.24075406      -1.56007505
H       -11.51160634      -5.49039561      -2.64497105
H        -1.30918941       4.47868895      -2.27739618
H        -0.89820783       3.10711418      -1.20836428
H        -1.32438757       5.20831982       1.49644017
H        -0.80770370       3.59901361       0.97051099
H         2.59804861       7.16462197       1.64573511
H         2.40945791       6.77825346      -0.04778695
H         3.89906163       4.93946663       1.90071387
H         4.67067765       6.23465788       1.01276523
H         4.21457102       5.27178248      -1.11737548
H         3.11218890       4.06165632      -0.45366758
H         4.82906010       2.81328282       0.57146149
H         5.99127323       4.12971820       0.51189851
H         6.36616346       3.88810962      -1.82484309
H         6.47560703       2.29538799      -1.08982067
H         4.15304732       3.41888679      -2.73449318
H         4.05418347       1.88422919      -1.87098395
H         5.83522409       0.90724155      -3.15039891
H         6.31654472       2.44475873      -3.85400259
H         3.59069505       1.14752372      -4.36680596
H         5.01782050       0.84989578      -5.35651358
H         5.20920603       3.34638704      -5.76459078
H         3.66830940       3.57249891      -4.95821102
H         4.18127176       1.87939616      -7.46009717
H         3.50750013       3.49986301      -7.44740343
H         2.17588257       1.01589220      -6.24101692
H         1.79031897       1.76329439      -7.78119840
H         0.15143326       2.48133193      -6.14149714
H         1.40400543       3.05837632      -5.03617592
H         1.13558921       3.88408107      -6.58448128
H         1.84136433       5.90362407       3.30704362
H         0.12327656       5.91272928       2.95814746
H         0.75191239       3.99839137       4.33965402
H         0.10796594       3.42356206       2.82375935
H         2.43154650       3.02897232       1.97550001
H         3.07507760       3.62381732       3.51673009
H         1.24549849       1.19458735       3.17485179
H         1.86709840       1.79111580       4.71616333
H         4.21754521       1.43159448       3.90022306
H         3.58451518       0.82407236       2.36896654
H         3.05226069      -0.39570714       5.12616688
H         2.38561972      -1.00413412       3.61270591
H         4.78292700      -1.27678211       2.75816579
H         5.34721995      -0.87691537       4.37719103
H         3.54985933      -3.23976599       3.61258973
H         5.27634652      -3.31819102       3.94066402
H         4.86088482      -2.53991665       6.29542404
H         3.12694392      -2.51438672       5.96633891
H         4.91430737      -4.98557143       5.73456780
H         3.17794673      -4.96102675       5.44308036
H         3.82840791      -5.85131367       7.68885551
H         4.53226712      -4.29506589       8.11534756
H         1.57828227      -4.74767103       7.41545429
H         2.23785077      -4.61875956       9.05422962
H         2.28918019      -3.22059441       7.97700295
