57
lig_148 free ligand  charge=0 uhf=0  ETKDGv3 + MMFF94s  smiles=CCN(C(=O)c1cccc(C(=O)N(CC)c2ccccc2C)n1)c1ccccc1C
C        -0.75130578      -1.77652637      -0.30704890
C        -1.72269752      -1.18312609       0.70249380
N        -2.58296779      -0.12283958       0.15116841
C        -2.39840216       1.25820087       0.32761957
O        -3.22537738       2.10642268      -0.02009765
C        -1.15722405       1.77884385       0.98027010
C        -1.26240898       2.90582164       1.79330068
C        -0.11015406       3.41791554       2.38025708
C         1.10931424       2.80298542       2.12197045
C         1.13234101       1.70430906       1.26710028
C         2.43859609       1.02310842       1.01352958
O         3.20511630       0.94393076       1.97691774
N         2.74749017       0.55624513      -0.28075856
C         2.09918817       1.09580893      -1.49036642
C         2.46139886       2.55113041      -1.76306632
C         3.84581824      -0.35881251      -0.46341548
C         4.76276173      -0.13607998      -1.50844905
C         5.85995661      -0.97658536      -1.71289497
C         6.06121633      -2.06639344      -0.87898343
C         5.15310554      -2.32520586       0.14394277
C         4.02823996      -1.50018454       0.35114838
C         3.06801496      -1.93139431       1.42819239
N         0.02106789       1.16930741       0.70105297
C        -3.79688112      -0.56759695      -0.44925582
C        -3.74982550      -1.07602851      -1.75358523
C        -4.91136460      -1.52703515      -2.37968119
C        -6.12835773      -1.46855217      -1.70750170
C        -6.18473805      -0.96107561      -0.40856660
C        -5.02232772      -0.51602346       0.24280022
C        -5.13843646       0.03110421       1.63767773
H        -0.05191329      -2.45059973       0.19684967
H        -1.27603054      -2.36448693      -1.06539135
H        -0.17690453      -1.00530260      -0.82481407
H        -2.36401173      -1.98186939       1.09736200
H        -1.17459850      -0.79816634       1.56722629
H        -2.22721631       3.37472275       1.96617164
H        -0.16256559       4.28710527       3.03062287
H         2.02570455       3.17218887       2.57367178
H         1.01548420       1.01217550      -1.39834098
H         2.35283992       0.47691997      -2.35919538
H         1.99853017       2.88400770      -2.69741480
H         2.10999968       3.21021021      -0.96395617
H         3.54271645       2.68998808      -1.85023594
H         4.66949693       0.72516549      -2.16187672
H         6.56278154      -0.76685593      -2.51468400
H         6.91843383      -2.71778155      -1.02503447
H         5.31491830      -3.19295418       0.78092028
H         3.01931957      -3.02534606       1.48140861
H         3.39242404      -1.55908024       2.40398240
H         2.04752362      -1.59729509       1.22445552
H        -2.81258811      -1.09446422      -2.30180860
H        -4.86752526      -1.90959156      -3.39565809
H        -7.03725363      -1.80867594      -2.19692075
H        -7.14718728      -0.91277718       0.09637604
H        -4.28228236      -0.26283377       2.25287363
H        -5.20972597       1.12241952       1.61238300
H        -6.03152687      -0.35849713       2.13857447
