64
lig_116 free ligand  charge=0 uhf=0  ETKDGv3 + MMFF94s  smiles=CCCCCCN(CCCCCC)C(=O)COCC(=O)N1CCOCC1
C         0.56921652      -4.62165378       0.60917580
C        -0.90218231      -4.45258849       0.25856354
C        -1.34780290      -2.98937313       0.19075750
C        -0.68746679      -2.21537110      -0.95181940
C        -1.19730938      -0.77821088      -1.09298399
C        -0.98972763       0.06547491       0.16837280
N        -1.01521642       1.50169290      -0.12280477
C        -2.32506199       2.13839399      -0.25883999
C        -2.82897940       2.67524294       1.08296392
C        -4.24864980       3.24353055       1.01497215
C        -4.35921332       4.49914632       0.14735755
C        -5.76813032       5.09088316       0.20755720
C        -5.88634073       6.33698824      -0.65554476
C         0.12590211       2.28837430      -0.27491685
O         0.05772133       3.50532319      -0.47718654
C         1.50276552       1.61958947      -0.13342754
O         1.71341280       0.58852741      -1.08956403
C         2.98134862      -0.03574431      -0.96586810
C         3.16277430      -1.02926878       0.20126458
O         2.27672102      -1.19716107       1.04169738
N         4.36126054      -1.72467807       0.26318155
C         4.59872229      -2.66292764       1.36433319
C         5.17335004      -3.98262609       0.84144276
O         6.35121890      -3.75466304       0.05023568
C         6.04885146      -2.92544906      -1.08127552
C         5.50707812      -1.56107553      -0.63814310
H         0.80336592      -5.68263503       0.74328084
H         0.81452872      -4.10057865       1.54003003
H         1.21876583      -4.23820555      -0.18311925
H        -1.11047502      -4.95213141      -0.69463849
H        -1.50218141      -4.96267149       1.02162757
H        -1.13316356      -2.50725290       1.15137044
H        -2.43624531      -2.96358724       0.05775420
H        -0.86806228      -2.74092959      -1.89749940
H         0.39803188      -2.18937077      -0.81056614
H        -2.26228904      -0.78916692      -1.35498769
H        -0.68076534      -0.31655096      -1.94340274
H        -0.04836868      -0.19535996       0.65180148
H        -1.77808129      -0.14693897       0.89978664
H        -2.24471916       2.95555766      -0.98347423
H        -3.03049057       1.41001296      -0.67359625
H        -2.14115444       3.44176202       1.46075528
H        -2.81953262       1.86554391       1.82319809
H        -4.56885822       3.48483882       2.03622360
H        -4.93545519       2.47365891       0.64271109
H        -4.11640589       4.25943113      -0.89386069
H        -3.63235354       5.24665310       0.48740234
H        -6.02146478       5.34616296       1.24309977
H        -6.49883819       4.34747847      -0.13177869
H        -6.90081994       6.74360101      -0.59720975
H        -5.18965255       7.11269205      -0.32202251
H        -5.67132553       6.10956952      -1.70453602
H         1.60106967       1.24821826       0.89149411
H         2.26058994       2.39848905      -0.28187076
H         3.76791775       0.72602448      -0.91561533
H         3.12095243      -0.60453764      -1.89145790
H         5.32353202      -2.17943848       2.02994276
H         3.68635837      -2.85238146       1.93741110
H         4.43581441      -4.52069760       0.23407220
H         5.45405212      -4.62764470       1.67974444
H         5.32662794      -3.44616211      -1.72122602
H         6.97158327      -2.79283964      -1.65456011
H         5.25980048      -0.95596977      -1.51168617
H         6.27344918      -1.02701989      -0.06409886
