143
lig_043 free ligand  charge=0 uhf=0  ETKDGv3+randomCoords + MMFF94s  smiles=CCCCCCCCCCN(CCCCCCCCCC)C(=O)C(C)OC(C)C(=O)N(CCCCCCCCCC)CCCCCCCCCC
C         4.15859854       4.10954769       6.49067239
C         5.66492778       3.89758103       6.47466493
C         6.11127483       2.64295232       5.71713945
C         6.44701193       2.86286831       4.23763731
C         5.28466155       3.24382168       3.31956324
C         4.11091422       2.26187062       3.29923647
C         4.47300745       0.88735455       2.73225568
C         3.25379508      -0.03728429       2.73843840
C         3.54500356      -1.36589718       2.03873276
C         2.37415178      -2.35472523       2.10685946
N         1.21812759      -1.95460731       1.29423333
C         1.27019317      -2.26882359      -0.13504657
C         0.44497751      -3.49789733      -0.53323826
C         1.05979064      -4.81923941      -0.06821344
C         0.29273770      -6.05167402      -0.55204125
C         0.13943039      -6.23408549      -2.06780050
C         1.44136172      -6.49063483      -2.83667394
C         2.20632608      -5.25469459      -3.32424489
C         1.45438274      -4.44058584      -4.38199729
C         2.21865584      -3.18855543      -4.82121655
C         3.46899432      -3.49418829      -5.63055564
C         0.18297463      -1.26100723       1.92747396
O         0.24330574      -0.98507443       3.13023055
C        -1.06678963      -0.85165133       1.10456085
C        -2.26613926      -1.54712288       1.75428404
O        -1.34635097       0.54752931       1.13119204
C        -0.83764702       1.29952334       0.02638748
C         0.63980042       1.62139540       0.22850579
C        -1.64635309       2.61643190      -0.11335749
O        -1.10807074       3.71412661       0.06394275
N        -2.99636495       2.52884963      -0.46631653
C        -3.67968574       1.29841931      -0.86384748
C        -3.57067545       1.05033648      -2.37030531
C        -4.27099338      -0.25397028      -2.75692097
C        -4.16652147      -0.58483396      -4.24784786
C        -2.75151783      -0.98220482      -4.67631481
C        -2.72301879      -1.45093866      -6.13307667
C        -1.31232813      -1.86986276      -6.55321450
C        -1.28653118      -2.36525784      -8.00076039
C         0.08948399      -2.86933920      -8.44165614
C         1.12929865      -1.76543857      -8.55868078
C        -3.78445801       3.76312768      -0.47012211
C        -4.09884182       4.26837496       0.94433045
C        -4.98341996       3.31010368       1.75071653
C        -5.08168630       3.70569570       3.22924174
C        -4.14888683       2.90874566       4.15272398
C        -2.66061204       3.07460429       3.83899086
C        -1.78839346       2.32111141       4.84640815
C        -0.29835359       2.33437857       4.48858702
C         0.35089911       3.71676619       4.39729995
C         0.29018222       4.50275921       5.69712504
H         3.64050376       3.22474951       6.87410551
H         3.76479543       4.33568699       5.49807579
H         3.90717105       4.95309542       7.14197826
H         6.16480197       4.78879214       6.07895157
H         5.98935320       3.79579960       7.51803014
H         5.38456983       1.83235544       5.83880624
H         7.03442856       2.28769694       6.19459280
H         6.91944109       1.95044850       3.85412678
H         7.21408268       3.64433611       4.16272497
H         5.67323556       3.34941629       2.29852247
H         4.91511308       4.23692118       3.59711453
H         3.31764362       2.69856481       2.67915158
H         3.68792167       2.14945326       4.30290998
H         5.27226941       0.42685165       3.32300069
H         4.84747545       1.00339216       1.70819688
H         2.94691315      -0.22352659       3.77479170
H         2.42146760       0.46765985       2.24142592
H         3.81865043      -1.17767346       0.99395085
H         4.41462983      -1.83335831       2.51692112
H         2.06958400      -2.49267327       3.15058662
H         2.71373348      -3.33386352       1.75252979
H         0.90330694      -1.40158383      -0.69216224
H         2.31533871      -2.40038388      -0.43843114
H        -0.57629431      -3.42455172      -0.14519726
H         0.36821824      -3.49199480      -1.62444532
H         1.06142196      -4.84319134       1.02825251
H         2.10827087      -4.88741824      -0.37403637
H        -0.71316872      -6.02426167      -0.11315317
H         0.77750137      -6.94433748      -0.13678172
H        -0.49071519      -7.12366307      -2.20515784
H        -0.43301928      -5.40988456      -2.50118581
H         2.11153540      -7.10288674      -2.22087125
H         1.20007753      -7.09978797      -3.71770519
H         3.15235347      -5.60642266      -3.75281852
H         2.47501095      -4.60869396      -2.48532526
H         0.48837425      -4.11346259      -3.98450076
H         1.23969947      -5.06965441      -5.25417691
H         2.48547156      -2.58529548      -3.94560076
H         1.55252892      -2.57277279      -5.43493937
H         4.22017947      -4.01420847      -5.02933634
H         3.91890546      -2.56353452      -5.99116972
H         3.23137816      -4.11358820      -6.50121409
H        -1.02366829      -1.19765021       0.07210592
H        -2.11453898      -2.62940173       1.81868434
H        -3.17933239      -1.35798780       1.18084021
H        -2.44651347      -1.16303064       2.76506280
H        -0.95749797       0.74207526      -0.90924657
H         0.80795408       2.09865644       1.19996670
H         1.01359069       2.29056801      -0.55351339
H         1.24958838       0.71698655       0.20491321
H        -3.25734964       0.44820437      -0.33043967
H        -4.73129187       1.36448172      -0.56221828
H        -2.51483162       1.01671659      -2.65798747
H        -4.01847089       1.88779848      -2.91892595
H        -3.86376960      -1.08582487      -2.16902484
H        -5.33342024      -0.17406331      -2.49479752
H        -4.84864503      -1.41781449      -4.45915204
H        -4.51303477       0.26745519      -4.84452368
H        -2.06960705      -0.13280199      -4.55861095
H        -2.38351342      -1.78636151      -4.02745200
H        -3.40931514      -2.29708186      -6.25963526
H        -3.07822124      -0.64481180      -6.78639131
H        -0.95658335      -2.66646776      -5.88912352
H        -0.63398029      -1.01795019      -6.43308441
H        -1.62083386      -1.56674554      -8.67415435
H        -2.00299802      -3.18927461      -8.10738347
H         0.44729098      -3.63846066      -7.74740745
H        -0.01470751      -3.35099878      -9.42127172
H         2.06908338      -2.17473277      -8.94315582
H         0.79437201      -0.98303689      -9.24699890
H         1.34078625      -1.30448782      -7.59002060
H        -3.21049456       4.53281553      -1.00004270
H        -4.70926951       3.60767933      -1.03729870
H        -3.16529594       4.46434954       1.48013253
H        -4.61171806       5.23483810       0.86202191
H        -4.63165769       2.27648540       1.67194104
H        -5.98860813       3.33151718       1.31120607
H        -6.10860113       3.51382163       3.56556781
H        -4.91030478       4.78089299       3.35842592
H        -4.33697674       3.22726304       5.18563380
H        -4.41536026       1.84561464       4.10065464
H        -2.44768096       2.69107164       2.83627707
H        -2.40909651       4.14065279       3.84912229
H        -2.11503179       1.27431978       4.89027406
H        -1.93860259       2.73329057       5.85073529
H        -0.16091028       1.82530344       3.52750839
H         0.24254119       1.73590858       5.23228691
H        -0.10567009       4.30175280       3.59152603
H         1.40339638       3.58463609       4.12171016
H         0.85746940       5.43399023       5.59957174
H        -0.73875053       4.76726349       5.95781517
H         0.72150948       3.92922819       6.52361666
