65
lig_128 free ligand  charge=0 uhf=0  ETKDGv3 + MMFF94s  smiles=CCCCN(CCCC)C(=O)COCC(=O)N(CCCC)CCCC
C        -2.63561006      -3.85942550       0.59960024
C        -2.32292875      -2.44959589       1.07461761
C        -2.92960218      -1.39830066       0.14618708
C        -2.61190305       0.01817865       0.63107833
N        -3.08506815       1.04237153      -0.30547321
C        -4.49596099       1.42038542      -0.23139670
C        -4.71914807       2.57416433       0.74848947
C        -6.19428992       2.96611004       0.81718775
C        -6.42153764       4.11184297       1.79033249
C        -2.27727486       1.68499591      -1.24200026
O        -2.71375012       2.57709176      -1.97738422
C        -0.79238745       1.30195690      -1.31896681
O        -0.59748095      -0.05757240      -1.68591585
C         0.77385321      -0.40218533      -1.81445400
C         1.57346903      -0.56124923      -0.50479545
O         1.02102091      -0.43543102       0.59153748
N         2.93526458      -0.85568370      -0.60653869
C         3.66333506      -1.05559375      -1.86531828
C         4.64941278       0.07313066      -2.19065764
C         3.96773678       1.41724523      -2.44825892
C         4.98342160       2.50079618      -2.77672820
C         3.67549320      -1.07162110       0.64174750
C         3.55618052      -2.52088221       1.12251201
C         4.39269849      -2.81479710       2.36883348
C         3.92209820      -2.06417984       3.60499814
H        -3.71603718      -4.03277833       0.56935253
H        -2.23089320      -4.03428864      -0.40240701
H        -2.19226955      -4.59499601       1.27803615
H        -2.71135349      -2.31710717       2.09105928
H        -1.23539317      -2.32133426       1.12289849
H        -2.55248420      -1.54399301      -0.87226350
H        -4.01594888      -1.53828761       0.09442884
H        -1.53852379       0.12649703       0.79291743
H        -3.08795517       0.19963633       1.60192245
H        -5.08374088       0.54462650       0.06459415
H        -4.84348410       1.71495860      -1.22863240
H        -4.36704581       2.28695401       1.74672925
H        -4.12004847       3.44090219       0.44302731
H        -6.54732982       3.26360250      -0.17706336
H        -6.79437090       2.10385740       1.13040454
H        -5.85960525       5.00112357       1.48742754
H        -7.48317134       4.37589160       1.82369861
H        -6.10829425       3.83518918       2.80210411
H        -0.33062407       1.94511662      -2.07832324
H        -0.32285055       1.53271430      -0.35759873
H         0.79316892      -1.37587388      -2.31579753
H         1.26848188       0.32279348      -2.46710536
H         4.21214594      -2.00060199      -1.77862696
H         2.97098538      -1.18021193      -2.70103269
H         5.38042200       0.18512451      -1.38222238
H         5.21647062      -0.21555434      -3.08452239
H         3.39231832       1.72698957      -1.56895222
H         3.26653368       1.32327826      -3.28491162
H         5.55742415       2.24235614      -3.67229904
H         5.68443579       2.64531165      -1.94845808
H         4.47548459       3.45247539      -2.96179364
H         4.72624250      -0.80659423       0.48889973
H         3.28279503      -0.38968078       1.40362445
H         2.50496132      -2.76626502       1.31755859
H         3.88369042      -3.19561429       0.32195315
H         4.34223628      -3.89063421       2.57494110
H         5.44560587      -2.57824090       2.17643405
H         4.06539752      -0.98503099       3.49822202
H         2.86247724      -2.25560587       3.80157189
H         4.49310445      -2.38845721       4.48097115
