78
lig_014 free ligand  charge=0 uhf=0  ETKDGv3 + MMFF94s  smiles=CC1(C)CCC(C)(C)c2nc(-c3cccc(-c4cccc(-c5nnc6c(n5)C(C)(C)CCC6(C)C)n4)n3)nnc21
C        -6.97183101       0.07284096      -4.99425100
C        -7.08155188      -0.86990941      -3.77734766
C        -7.07423363      -2.32566459      -4.28750798
C        -8.41452733      -0.55982619      -3.06144798
C        -8.47129983      -1.17955948      -1.66981201
C        -7.34964774      -0.64487755      -0.75155446
C        -7.28008799      -1.56547524       0.48577936
C        -7.68257972       0.78434541      -0.27571941
C        -6.00354706      -0.61004286      -1.46570575
N        -4.90964484      -0.45436269      -0.67621322
C        -3.70827529      -0.39909697      -1.29434245
C        -2.49523466      -0.23584204      -0.46150732
C        -2.56460214      -0.14011553       0.92936826
C        -1.39440192       0.01239439       1.66480874
C        -0.17563175       0.06661459       0.99863309
C        -0.14926906      -0.03269453      -0.39148675
C         1.11530984       0.01771597      -1.16384593
C         1.14409834      -0.08001921      -2.55352700
C         2.36444649      -0.02513333      -3.21702461
C         3.53421532       0.12642727      -2.48006222
C         3.46259251       0.22049733      -1.08930667
C         4.67135556       0.38307161      -0.24829078
N         5.87158695       0.44800198      -0.86538393
N         7.00258079       0.59328455      -0.12080674
C         6.91204470       0.66435884       1.22611397
C         5.65988387       0.61477403       1.82681500
N         4.53112551       0.45985742       1.09202657
C         5.47534015       0.67340713       3.33803203
C         5.13657525      -0.74534623       3.84042063
C         4.30417804       1.61077244       3.70312798
C         6.74029121       1.20607083       4.04751633
C         8.01277037       0.56615231       3.50369503
C         8.20537016       0.85235190       1.99803935
C         9.29289967      -0.10833840       1.47278321
C         8.69233259       2.30068969       1.78675731
N         2.26088147       0.16582579      -0.44430846
N        -1.29626589      -0.18193424      -1.10934009
N        -3.56601429      -0.48577491      -2.63366901
N        -4.67137764      -0.63152467      -3.41862098
C        -5.89518356      -0.68123678      -2.84976716
H        -7.84642252      -0.02515167      -5.64778869
H        -6.08522244      -0.14390509      -5.60152251
H        -6.90372467       1.12104150      -4.67961214
H        -7.93790596      -2.52267796      -4.93271229
H        -6.17207334      -2.53965226      -4.87337158
H        -7.09787462      -3.04917255      -3.46520443
H        -8.55739018       0.52491573      -2.97663132
H        -9.25940559      -0.92711704      -3.65797775
H        -8.40017926      -2.27090717      -1.76026449
H        -9.45362888      -0.97953925      -1.22302939
H        -6.97428626      -2.58114733       0.20792468
H        -8.25553729      -1.63237569       0.98141380
H        -6.56186978      -1.19997690       1.22905484
H        -6.94306282       1.14733021       0.44838010
H        -7.69364177       1.50083580      -1.10436577
H        -8.66325858       0.82007026       0.21211507
H        -3.52168719      -0.18356251       1.44162352
H        -1.42984935       0.08846573       2.74773427
H         0.74697700       0.18556254       1.56105786
H         0.22323085      -0.19820382      -3.11899549
H         2.40121677      -0.10010494      -4.30023823
H         4.48994566       0.16976438      -2.99507961
H         5.03246090      -0.76397057       4.93120436
H         5.90704640      -1.47356141       3.56433263
H         4.19191414      -1.10538532       3.41499377
H         3.34930898       1.24876766       3.30411407
H         4.46382852       2.61932860       3.30359151
H         4.19171532       1.69430702       4.79032291
H         6.80974239       2.29526579       3.93299082
H         6.67421046       1.02213611       5.12751110
H         7.97446672      -0.51577655       3.68325100
H         8.87643902       0.93347092       4.07266242
H         9.54327642       0.09067369       0.42419666
H         8.96514916      -1.15271876       1.53763453
H        10.21777954      -0.01030027       2.05295920
H         8.91714559       2.49716519       0.73139562
H         9.60640537       2.49766291       2.35833954
H         7.94008970       3.03576341       2.09336054
