37
lig_165 free ligand  charge=0 uhf=0  ETKDGv3 + MMFF94s  smiles=O=C(O)CN(CCO)CCN(CC(=O)O)CC(=O)O
O         4.49134579       1.01172993       0.32232552
C         4.01651230       0.94816451       1.44439566
O         4.80591475       1.17500631       2.51854752
C         2.57690529       0.65604120       1.85493828
N         1.75131672       0.15999460       0.72006784
C         1.86723160      -1.30901119       0.56434624
C         3.25338548      -1.84463138       0.16899616
O         3.18415707      -3.24866318      -0.08040005
C         0.33503096       0.54316471       0.94188807
C        -0.53342051       0.46074419      -0.34114390
N        -1.90330115       0.99927213      -0.18598798
C        -2.57665760       1.05549922      -1.50777902
C        -3.86057500       1.88075139      -1.49516306
O        -4.30744128       2.58628639      -0.60575323
O        -4.52717524       1.78135091      -2.66789091
C        -2.70828937       0.28419430       0.83344365
C        -2.86694849      -1.20517637       0.57164826
O        -2.06727642      -2.08184246       0.86068830
O        -4.00497899      -1.50909849      -0.08610904
H         5.68357594       1.35889429       2.12153635
H         2.56528328      -0.05296681       2.69084374
H         2.19492472       1.61817717       2.21852036
H         1.53617963      -1.82382132       1.47686013
H         1.18088285      -1.64902914      -0.21932611
H         3.97835736      -1.70127570       0.97417068
H         3.62684198      -1.35654354      -0.73672580
H         2.65662088      -3.36840535      -0.88896204
H         0.29114497       1.59036239       1.26975643
H        -0.09065591      -0.06183357       1.75105380
H        -0.01738063       1.05517178      -1.10744679
H        -0.57445462      -0.56406708      -0.72432604
H        -2.79728545       0.05109372      -1.88462054
H        -1.91759732       1.55652605      -2.22775895
H        -5.30822558       2.35900410      -2.53454684
H        -2.26229585       0.40229583       1.82744735
H        -3.70482821       0.72552986       0.94249016
H        -3.96682396      -2.48288942      -0.19369166
