71
lig_052 free ligand  charge=0 uhf=0  ETKDGv3 + MMFF94s  smiles=CCCCCCCCN(C)C(=O)COCC(=O)N(C)CCCCCCCC
C        -9.36471172       0.81784681       0.38386185
C        -9.44135621      -0.67379498       0.65859901
C        -8.83198717      -1.55356210      -0.43708710
C        -7.32338205      -1.36874541      -0.64099099
C        -6.98916786      -0.39929759      -1.77948290
C        -5.48610350      -0.27946551      -2.05071607
C        -4.71774806       0.39541853      -0.91300232
C        -3.24560037       0.59369816      -1.28169140
N        -2.49784533       1.22739190      -0.19737600
C        -2.44811454       2.68344382      -0.20192479
C        -1.88578360       0.41489123       0.75202067
O        -1.97260526      -0.81609359       0.71439624
C        -1.06818173       1.08612815       1.86526739
O         0.06829406       1.79729439       1.38575963
C         1.15143677       0.93575280       1.04898230
C         1.96111271       0.37277783       2.23873079
O         1.65383019       0.65808193       3.39917237
N         3.03271382      -0.47447417       1.94788526
C         3.74326464      -1.09266274       3.05949387
C         3.50557114      -0.79017331       0.59678189
C         4.46331687       0.25110276       0.00497068
C         5.85689817       0.32717541       0.63646427
C         6.66740360      -0.97287227       0.62619484
C         6.89562361      -1.59896085      -0.75060920
C         7.60757317      -0.72737018      -1.79116440
C         9.08133014      -0.43733680      -1.49041306
C         9.31240434       0.86299030      -0.73618784
H        -9.93941734       1.36757635       1.13640039
H        -8.33336841       1.17861143       0.43369502
H        -9.77697551       1.06070274      -0.60032710
H       -10.49615416      -0.95182676       0.77322741
H        -8.95618456      -0.88928488       1.61799772
H        -9.37322894      -1.40948970      -1.37965936
H        -9.00489182      -2.59647418      -0.14116929
H        -6.85506153      -1.05379076       0.29729958
H        -6.89191773      -2.34563354      -0.89432458
H        -7.47155837      -0.75485741      -2.69869003
H        -7.39930359       0.59482512      -1.57776418
H        -5.35095025       0.30615086      -2.96865113
H        -5.06540097      -1.27334827      -2.24579477
H        -5.17628735       1.36438041      -0.68206310
H        -4.78193368      -0.20880445      -0.00119628
H        -2.79312043      -0.37744116      -1.51440766
H        -3.14865409       1.21501549      -2.17985276
H        -3.46378533       3.07423381      -0.31283423
H        -1.84392275       3.00342258      -1.05601036
H        -2.02019279       3.10215881       0.70794066
H        -1.71789581       1.78938269       2.39652242
H        -0.77911744       0.32478953       2.59842044
H         1.83328703       1.53643139       0.44156212
H         0.78731377       0.11042162       0.42906272
H         3.78614311      -2.17353543       2.89497792
H         3.25177497      -0.91245138       4.01895264
H         4.75704471      -0.69229615       3.11213321
H         2.63642373      -0.86126594      -0.06395138
H         3.95434196      -1.78904375       0.60119834
H         4.57330104       0.04394582      -1.06624516
H         4.01364492       1.24796343       0.07244554
H         6.42204549       1.10882607       0.11553887
H         5.76752985       0.67901375       1.67019526
H         6.16805367      -1.71503349       1.25991353
H         7.63422904      -0.79185914       1.10821944
H         5.92852809      -1.90763063      -1.16577261
H         7.46700759      -2.52642086      -0.61659384
H         7.57386713      -1.28438404      -2.73715992
H         7.05438596       0.20041759      -1.97275798
H         9.53981678      -1.27192339      -0.94825123
H         9.61334773      -0.35718672      -2.44682451
H        10.38638989       1.05622054      -0.64582941
H         8.86336117       1.70926502      -1.26582275
H         8.89929937       0.83104244       0.27372114
