95
lig_030 free ligand  charge=0 uhf=0  ETKDGv3 + MMFF94s  smiles=CCCCCCCCCCCCN(C)C(=O)COCC(=O)N(C)CCCCCCCCCCCC
C       -12.55919869      -2.49882017       0.84638961
C       -11.38012432      -3.45876305       0.88489298
C       -10.09406613      -2.83044104       1.42898221
C        -9.52244233      -1.73959822       0.51899597
C        -8.23563793      -1.10646253       1.06205751
C        -7.02910766      -2.04472515       1.01413940
C        -5.74998224      -1.45155331       1.61802919
C        -5.20006367      -0.22534198       0.87913722
C        -5.56763320       1.09501714       1.56700983
C        -5.04811251       2.32674640       0.81599431
C        -3.72873535       2.89343296       1.35047944
C        -2.53706719       1.94690324       1.20792475
N        -1.27010904       2.61462708       1.52319771
C        -0.92015788       2.71443005       2.93310316
C        -0.44088456       3.22633621       0.58097821
O         0.59155370       3.81597512       0.91020106
C        -0.86017398       3.12116430      -0.90372471
O        -0.10478967       3.86601156      -1.84866290
C         1.18853395       3.33410424      -2.09871695
C         1.26754225       2.00396113      -2.88213402
O         0.24898691       1.46886281      -3.32752988
N         2.53161536       1.43787593      -3.05404334
C         2.64373368       0.17893827      -3.77711126
C         3.77175409       1.98296490      -2.49380511
C         4.10092160       1.36411554      -1.13132262
C         5.38885583       1.92385764      -0.51864842
C         6.62685935       1.04345188      -0.72953328
C         7.04020764       0.88875508      -2.19422441
C         8.38587252       0.17414339      -2.37406669
C         8.28122507      -1.32825982      -2.66179182
C         7.67857496      -2.19507359      -1.55562776
C         8.49867864      -2.18701018      -0.26401052
C         7.88153064      -3.11093554       0.78814497
C         8.69652143      -3.10343558       2.08116101
C         8.08602345      -4.01963134       3.12963047
H       -12.39882852      -1.69344879       0.12395386
H       -12.73560285      -2.05279300       1.83023065
H       -13.46763489      -3.03263032       0.54902560
H       -11.20348158      -3.86136690      -0.11927433
H       -11.64689327      -4.30883173       1.52434922
H        -9.35895341      -3.63356736       1.54916734
H       -10.28063475      -2.41921205       2.42839067
H       -10.26145453      -0.93826796       0.40577334
H        -9.33951459      -2.14667026      -0.48269781
H        -8.02491129      -0.22212629       0.45030121
H        -8.40037516      -0.75774625       2.08838163
H        -6.83706275      -2.34036388      -0.02463997
H        -7.25274507      -2.96533719       1.56410351
H        -5.90448086      -1.23098714       2.68091916
H        -4.98507016      -2.23809546       1.57773900
H        -5.54007607      -0.22109996      -0.16314330
H        -4.10948782      -0.31515455       0.84594632
H        -5.20612887       1.09798258       2.60219822
H        -6.65871021       1.17177344       1.62297584
H        -4.96276285       2.12228082      -0.25779381
H        -5.79904913       3.12125708       0.91659703
H        -3.51834887       3.82698589       0.81365754
H        -3.85418564       3.17408446       2.40345493
H        -2.63806239       1.09273473       1.88612286
H        -2.50207239       1.54510132       0.19227149
H         0.06343572       3.16488206       3.08737776
H        -0.91488964       1.71076263       3.36844236
H        -1.66854922       3.32850654       3.44170471
H        -0.87907258       2.06375725      -1.18382409
H        -1.88373104       3.50169734      -0.97987195
H         1.73905225       3.23620761      -1.16054097
H         1.70714763       4.08362894      -2.70682890
H         1.69216414      -0.13937979      -4.20988936
H         2.99129992      -0.59694604      -3.08943469
H         3.37036238       0.29994168      -4.58605579
H         4.57189463       1.80663536      -3.21879772
H         3.68591622       3.06840910      -2.39152495
H         3.27133891       1.58012930      -0.44632929
H         4.15320301       0.27149392      -1.20136166
H         5.58361316       2.94111487      -0.87825576
H         5.23709721       2.00659339       0.56544701
H         7.45645239       1.49231152      -0.16895957
H         6.44233861       0.06405073      -0.27833353
H         7.13025263       1.89294682      -2.62759468
H         6.26443683       0.36482119      -2.76209421
H         8.88200452       0.62383669      -3.24457990
H         9.05021089       0.36336529      -1.52392788
H         7.68765655      -1.47078994      -3.57378831
H         9.28615967      -1.70374589      -2.89329629
H         7.62070238      -3.22571553      -1.92876189
H         6.64634924      -1.88865493      -1.35610864
H         9.52435411      -2.50983869      -0.47989380
H         8.55926342      -1.17193951       0.14248166
H         6.85398449      -2.79077361       0.99992097
H         7.82712878      -4.13306110       0.39406020
H         9.72385639      -3.42607405       1.87581678
H         8.75024070      -2.08441972       2.48173278
H         8.68448799      -3.99896467       4.04577356
H         8.04726734      -5.05365530       2.77238705
H         7.06839359      -3.70438100       3.38140345
