31
lig_161 free ligand  charge=0 uhf=0  ETKDGv3 + MMFF94s  smiles=Cc1ccn(-c2cccc(-n3ccc(C)n3)n2)n1
C        -5.68086669       1.05084514      -0.18753480
C        -4.19835281       1.04287199      -0.17669829
C        -3.32475706       2.13990102      -0.32630366
C        -2.06559141       1.60041047      -0.24166656
N        -2.21810507       0.24392573      -0.05059858
C        -1.16545140      -0.70921820       0.09126109
C        -1.48277384      -2.04996260       0.27901590
C        -0.44327179      -2.96417702       0.41527742
C         0.87838344      -2.52236986       0.36139338
C         1.12643046      -1.16392809       0.17067967
N         2.47597410      -0.67707309       0.11060687
C         3.65236437      -1.39478581       0.21995366
C         4.68819202      -0.49954442       0.09999965
C         4.06680768       0.75016534      -0.08102371
C         4.70746346       2.07428369      -0.26429333
N         2.73545584       0.64723473      -0.07519527
N         0.11658080      -0.26131466       0.03625210
N        -3.53472755      -0.10735219      -0.00948741
H        -6.06935909       2.06382860      -0.33354360
H        -6.07381569       0.67095109       0.76101858
H        -6.06229536       0.42179631      -0.99826747
H        -3.57621547       3.18040258      -0.47527209
H        -1.07942672       2.04159940      -0.29766397
H        -2.51429809      -2.38798349       0.32011014
H        -0.66375922      -4.01837222       0.56309330
H         1.66982050      -3.25381132       0.47015106
H         3.66600663      -2.46225974       0.37117882
H         5.74602485      -0.71864878       0.13796893
H         5.79882165       1.99066588      -0.24560985
H         4.40684003       2.76038453       0.53408338
H         4.41790146       2.51153497      -1.22527164
