92
lig_050 free ligand  charge=0 uhf=0  ETKDGv3 + MMFF94s  smiles=CCCCCCCCN(C)C(=O)C(CCOCCCCCC)C(=O)N(C)CCCCCCCC
C         9.04557200      -1.79463927      -0.06486932
C         8.15877032      -2.94408856       0.38769669
C         7.40240915      -3.61923885      -0.75861929
C         6.45058314      -2.71458847      -1.54810626
C         5.37472208      -2.00124534      -0.72382066
C         4.43638673      -2.96133655       0.01258349
C         3.31925910      -2.19588405       0.72937077
C         2.38440641      -3.10144724       1.53995543
N         1.22953241      -3.59460438       0.77734222
C         1.49275945      -4.68137095      -0.15921030
C        -0.08282197      -3.11891939       0.85216845
O        -0.97020238      -3.65931199       0.18546011
C        -0.41415577      -1.95113550       1.77942615
C         0.22387830      -0.58247749       1.48299184
C         0.17238929      -0.08779878       0.04260726
O         1.11200856       0.97231165      -0.15162451
C         0.65993609       2.25891017       0.26738060
C        -0.28236489       2.90880760      -0.74739533
C         0.23875732       2.91547422      -2.18872206
C         1.58861108       3.60690377      -2.40145128
C         1.57943807       5.08685163      -2.01785261
C         2.90658296       5.75301886      -2.34746323
C        -1.88193723      -1.79843472       2.18673873
O        -2.14484562      -1.91814111       3.39390306
N        -2.87960247      -1.41798130       1.29920494
C        -2.82511945      -1.50077617      -0.15288199
C        -4.19811994      -1.09954209       1.85867768
C        -4.25272873       0.28938996       2.50806382
C        -4.04851581       1.46569574       1.54710913
C        -5.11038544       1.62266896       0.45398096
C        -6.51686775       1.87415757       1.00169959
C        -7.50986298       2.15189372      -0.12932407
C        -8.91707441       2.39791805       0.41431163
C        -9.90662618       2.67457193      -0.70627313
H         8.45443000      -0.96241786      -0.45805614
H         9.74509691      -2.12025446      -0.84120384
H         9.62979315      -1.41598424       0.77999165
H         8.78887693      -3.69808055       0.87497244
H         7.45853100      -2.58805554       1.15108302
H         6.84348989      -4.47187313      -0.35512525
H         8.13111626      -4.04476648      -1.46032948
H         5.95973565      -3.32265209      -2.31864570
H         7.03317313      -1.95945674      -2.08920959
H         5.84179776      -1.31465875      -0.00861321
H         4.78353659      -1.37796601      -1.40673656
H         4.01454824      -3.67009236      -0.70565569
H         5.00054467      -3.54272951       0.75030635
H         3.79025107      -1.48805913       1.42339674
H         2.75110755      -1.60370778       0.00434298
H         2.03682923      -2.55064400       2.41491545
H         2.92441524      -3.96778882       1.94051602
H         2.25277364      -5.35254421       0.25103632
H         1.84394953      -4.24909332      -1.10008025
H         0.59515059      -5.27076440      -0.36566238
H         0.03390996      -2.26467983       2.73612461
H        -0.24178529       0.17393934       2.12850206
H         1.27159468      -0.58670432       1.80132287
H         0.46610424      -0.88455699      -0.64652833
H        -0.82689868       0.24956023      -0.23556369
H         0.18272518       2.20421870       1.25148709
H         1.55084275       2.88364301       0.38987891
H        -1.23920983       2.37354888      -0.74679470
H        -0.50987180       3.93024056      -0.42215412
H        -0.51250746       3.39996161      -2.82503799
H         0.31818737       1.88176362      -2.54727399
H         2.37267617       3.08221995      -1.84344817
H         1.85287337       3.51422773      -3.46252555
H         0.77469061       5.60530262      -2.55164926
H         1.38734615       5.20167745      -0.94577542
H         3.72984632       5.27536544      -1.80666513
H         3.11957894       5.69504462      -3.41965305
H         2.88099812       6.80967976      -2.06328244
H        -3.21222180      -0.57300049      -0.58098405
H        -1.82483012      -1.65812956      -0.53964152
H        -3.45592567      -2.33530312      -0.47448011
H        -4.44066660      -1.85182022       2.61938159
H        -4.96191166      -1.19612336       1.07916227
H        -5.21263270       0.39851225       3.02512325
H        -3.48430741       0.35769659       3.28779380
H        -3.06357596       1.38093389       1.07261399
H        -4.01883616       2.38950031       2.13885136
H        -5.12270338       0.74165264      -0.19599324
H        -4.81756016       2.46898628      -0.18027699
H        -6.85911279       1.00245154       1.57049644
H        -6.49715538       2.72718275       1.69052256
H        -7.17965708       3.02700062      -0.70220996
H        -7.52646695       1.30044245      -0.82061607
H        -8.90641181       3.25049098       1.10329509
H        -9.25436176       1.52429965       0.98416446
H        -9.96508932       1.82670470      -1.39622970
H        -9.61546537       3.56251798      -1.27645925
H       -10.90612721       2.84752949      -0.29518640
