46
lig_164 free ligand  charge=0 uhf=0  ETKDGv3 + MMFF94s  smiles=O=C(O)CN(CC(=O)O)C1CCCCC1N(CC(=O)O)CC(=O)O
O        -3.06755523       1.97531369      -2.07805707
C        -3.19773185       1.74479133      -0.88600245
O        -4.38603646       1.33590922      -0.39569648
C        -2.11067548       1.83956289       0.16976061
N        -1.43074024       0.55786286       0.47362804
C        -2.35602312      -0.37742340       1.15600110
C        -1.61404362      -1.43569429       1.95203565
O        -1.26653497      -2.53321878       1.54427394
O        -1.28026359      -1.00883632       3.18857360
C        -0.65155346       0.02830750      -0.68048130
C        -1.39055138      -1.03623652      -1.52876239
C        -0.58281397      -1.45772802      -2.75220967
C         0.77918240      -1.99930154      -2.34796553
C         1.56138905      -0.97634197      -1.53265245
C         0.78890339      -0.49894760      -0.27641156
N         1.71369596       0.41017812       0.45315451
C         1.56996428       0.36419298       1.92530916
C         1.91963200      -1.00053967       2.51030725
O         1.24852142      -1.62203858       3.32605792
O         3.10030222      -1.49578354       2.08596692
C         1.70422848       1.80036431      -0.03676883
C         3.01349216       2.50303304       0.28993819
O         3.22658860       3.22005615       1.25629192
O         3.99389565       2.24649531      -0.60096943
H        -4.97000917       1.30720982      -1.18299916
H        -1.38311523       2.58558656      -0.17125429
H        -2.54203884       2.27322313       1.08069720
H        -2.97631176       0.16355280       1.88367752
H        -3.06272370      -0.86818284       0.47895158
H        -0.56880861      -1.62808915       3.48782348
H        -0.46555093       0.86848960      -1.36407566
H        -2.35818722      -0.65563214      -1.87099861
H        -1.59388068      -1.93451151      -0.93651551
H        -0.45901216      -0.60209279      -3.42709899
H        -1.13272361      -2.22599877      -3.30761381
H         0.65385855      -2.91834738      -1.76247527
H         1.34941708      -2.26766761      -3.24452391
H         1.80475833      -0.12652269      -2.18246430
H         2.51676334      -1.42663707      -1.23301844
H         0.64928300      -1.40400093       0.32418567
H         0.56156787       0.64318552       2.23976548
H         2.25808364       1.06427924       2.41244126
H         3.17567463      -2.36981769       2.51815587
H         1.59264812       1.85738887      -1.12562182
H         0.88552503       2.38707890       0.39297849
H         4.77951008       2.69352895      -0.22533842
