76
lig_081 free ligand  charge=0 uhf=0  ETKDGv3 + MMFF94s  smiles=CCCCCCCCN(CCCCCCCC)C(=O)COCC(=O)N1CCOCC1
C        -2.81903447       6.69058381      -3.73144402
C        -3.01322683       6.59318387      -2.22515823
C        -1.73460619       6.21515477      -1.47183157
C        -1.59048594       4.72076911      -1.16012944
C        -1.45689584       3.83336930      -2.39766543
C        -1.04240571       2.39461535      -2.06821456
C        -2.09013661       1.63636667      -1.24830605
C        -1.75733020       0.14916700      -1.07064362
N        -0.55189654      -0.08115995      -0.26588049
C        -0.68016943       0.02626380       1.19128213
C        -0.82950948      -1.32349569       1.90592311
C        -2.12372611      -2.09528169       1.62798802
C        -3.37718039      -1.38950746       2.15230361
C        -4.67497850      -2.13457597       1.82295069
C        -4.80009369      -3.48640651       2.52889911
C        -6.16310049      -4.12623340       2.26061255
C        -6.29326949      -5.47221988       2.95565592
C         0.64540055      -0.34874752      -0.94433623
O         0.67419994      -0.47853593      -2.16995795
C         1.92868754      -0.46699969      -0.09784922
O         3.11059931      -0.63633851      -0.86891327
C         4.23173027      -0.98860185      -0.07364608
C         5.57716894      -0.88303554      -0.81590412
O         5.69590848      -0.25765138      -1.87007373
N         6.66503564      -1.51774880      -0.22637525
C         6.64460799      -2.21477972       1.06131771
C         8.05052651      -2.30934497       1.66238927
O         8.98769239      -2.97943957       0.81095978
C         8.74702423      -2.78994873      -0.59248380
C         7.95370188      -1.52232665      -0.92267098
H        -2.52511074       5.73493097      -4.17093060
H        -2.05071661       7.43041535      -3.97853989
H        -3.75237423       7.00481609      -4.20973695
H        -3.34160638       7.57908026      -1.87310437
H        -3.82375193       5.89278565      -1.99461339
H        -0.84733172       6.57627454      -2.00530348
H        -1.74710760       6.74051696      -0.50792880
H        -2.45006534       4.39884519      -0.56071910
H        -0.70209687       4.59259903      -0.52908294
H        -0.70229963       4.26031273      -3.06930473
H        -2.40491104       3.81207603      -2.94636609
H        -0.08515964       2.41022673      -1.53446982
H        -0.87281310       1.86429206      -3.01324985
H        -2.20615927       2.10711995      -0.26633163
H        -3.06106436       1.71051120      -1.75330028
H        -2.59885111      -0.34834983      -0.58022654
H        -1.65421975      -0.31998987      -2.05529833
H        -1.51448677       0.69179254       1.43233984
H         0.21398760       0.52037117       1.58246321
H        -0.75291035      -1.14985747       2.98669065
H         0.00904942      -1.97571395       1.64005314
H        -2.03155159      -3.07158623       2.11822869
H        -2.21908938      -2.29915566       0.55615629
H        -3.45171963      -0.38844301       1.71458527
H        -3.29713015      -1.25297712       3.23754193
H        -4.75290307      -2.27405011       0.73777848
H        -5.51748715      -1.49754545       2.12003545
H        -4.66409503      -3.35184586       3.60873351
H        -4.01288268      -4.16571806       2.18362570
H        -6.30418946      -4.26302700       1.18213117
H        -6.96210615      -3.46257645       2.61110554
H        -6.18813907      -5.36551920       4.04004074
H        -5.52835771      -6.17147705       2.60311729
H        -7.27481677      -5.91108303       2.75103233
H         2.04310152       0.44976428       0.48888050
H         1.81297291      -1.32431438       0.57129429
H         4.29360830      -0.32173613       0.79472548
H         4.09342067      -2.01961444       0.26859097
H         6.24900814      -3.21823500       0.86694541
H         5.96951864      -1.70382530       1.75346165
H         8.02002101      -2.85244095       2.61217177
H         8.44536376      -1.30794945       1.87043599
H         9.71953060      -2.77169148      -1.09428799
H         8.20889131      -3.67490817      -0.95158873
H         8.49754090      -0.63425559      -0.58013564
H         7.80725178      -1.43593875      -2.00405432
