38
lig_150 free ligand  charge=0 uhf=0  ETKDGv3 + MMFF94s  smiles=CCN(CC)C(=O)c1ccc2ccc3cccnc3c2n1
C        -4.89710443      -0.68846876       1.31016121
C        -4.19089442      -0.22124331       0.04621925
N        -2.74075558      -0.15468426       0.22315619
C        -1.98663148      -1.38110696      -0.05648542
C        -1.65958707      -1.53143369      -1.53475628
C        -2.19866309       1.05061435       0.70078526
O        -2.93260321       1.98080190       1.05403033
C        -0.71537085       1.27294106       0.82271685
C        -0.26495825       2.29352628       1.64559111
C         1.10223885       2.52223996       1.72840052
C         1.98849188       1.73156913       0.98793175
C         3.36557179       1.95654049       1.06934532
C         4.24102632       1.16894136       0.33587450
C         3.74611577       0.14872479      -0.48191404
C         4.62855205      -0.65136301      -1.22153180
C         4.13681197      -1.66490252      -2.03088588
C         2.77195660      -1.84636914      -2.07217253
N         1.89539625      -1.09592523      -1.37237593
C         2.35421626      -0.09488774      -0.57739437
C         1.46691544       0.70809093       0.16120942
N         0.12736850       0.50909047       0.09045986
H        -4.56516975      -1.68976024       1.60240649
H        -4.69564436      -0.01336879       2.14818056
H        -5.97916131      -0.72125138       1.15008874
H        -4.57124696       0.76830404      -0.23161735
H        -4.41930724      -0.89496735      -0.78655271
H        -2.59496614      -2.23433797       0.26633079
H        -1.08169640      -1.42352140       0.55314727
H        -1.11370604      -0.66638316      -1.92178315
H        -1.05126713      -2.42616165      -1.69891190
H        -2.57278393      -1.63204453      -2.13021556
H        -0.96321526       2.90476519       2.20898761
H         1.46545890       3.32115452       2.37070019
H         3.76595515       2.74536469       1.70293717
H         5.31036027       1.35608350       0.40858162
H         5.70270184      -0.48936459      -1.17160431
H         4.80023493      -2.29452793      -2.61223871
H         2.32536013      -2.62267907      -2.68680208
