143
lig_084 free ligand  charge=0 uhf=0  ETKDGv3 + MMFF94s  smiles=CCCCCCCCN(CCCCCCCC)C(=O)COCC(=O)NCCCCCNC(=O)COCC(=O)N(CCCCCCCC)CCCCCCCC
C         1.48964461      -3.20678053       3.39597114
C         0.07019047      -3.74173214       3.50441626
C        -0.94067017      -2.70339505       3.99687968
C        -1.06490845      -1.43923318       3.14047748
C        -1.36274676      -1.66827133       1.65623375
C        -2.71361378      -2.33449707       1.39294517
C        -2.94846353      -2.66874514      -0.08458389
C        -2.86422920      -1.45217578      -1.01151120
N        -3.30775747      -1.74879236      -2.37792946
C        -4.65687586      -1.30919667      -2.75748078
C        -5.74065562      -2.27487285      -2.27728235
C        -7.12804207      -1.95579955      -2.84154048
C        -7.67782537      -0.56886194      -2.49302078
C        -7.76980675      -0.24911681      -0.99737160
C        -8.59855623      -1.22714955      -0.15918781
C       -10.06236412      -1.30940621      -0.59296629
C       -10.86569711      -2.20778893       0.33511595
C        -2.43985160      -2.44532621      -3.21915743
O        -1.31381241      -2.80160280      -2.84999725
C        -2.93757983      -2.76718591      -4.64256397
O        -2.05194991      -3.58336690      -5.39433197
C        -0.99184715      -2.84881409      -6.00349517
C         0.31281961      -3.63966113      -5.93159210
O         0.96309310      -3.93991528      -6.92806039
N         0.69565672      -3.92977502      -4.63986117
C         1.87407906      -4.70276448      -4.31615177
C         1.51696116      -6.14092830      -3.93990718
C         0.67178212      -6.25972581      -2.66505067
C         1.44416059      -5.91001045      -1.38474024
C         0.72617350      -4.87713159      -0.51620507
N         0.74492358      -3.55380827      -1.09952092
C         1.81903305      -2.70295755      -0.96084377
O         2.83574242      -2.99335362      -0.33380213
C         1.63280218      -1.33483103      -1.62403400
O         0.83733926      -0.45204042      -0.83900448
C         1.55479137       0.09820433       0.26051371
C         2.54463929       1.23389769      -0.06608560
O         2.71411700       1.60760969      -1.22996007
N         3.23739218       1.81543416       1.00001008
C         4.22350004       2.85292586       0.67904660
C         5.60076164       2.24970747       0.38944311
C         6.62855782       3.28280971      -0.07928658
C         6.98073456       4.31715389       0.99216573
C         8.09288160       5.25445752       0.51327204
C         8.43927295       6.29374784       1.58190626
C         9.61737636       7.19066243       1.19600221
C         9.33116981       8.08952714       0.00304323
C         3.11962282       1.40659954       2.40610144
C         2.41364443       2.44260487       3.29073814
C         0.94720437       2.65590078       2.90893080
C         0.21598281       3.64035731       3.82708001
C         0.77727037       5.06590623       3.85333460
C         0.88744918       5.76089580       2.49227891
C        -0.41714704       5.87025272       1.69951793
C        -1.49649660       6.66723432       2.41531421
H         1.82293120      -2.78177409       4.34792210
H         2.17620033      -4.01585408       3.12672173
H         1.57078434      -2.43502472       2.62547010
H         0.06822639      -4.58403856       4.20685319
H        -0.24369772      -4.14846947       2.53713547
H        -1.92219650      -3.18428375       4.08187857
H        -0.66757441      -2.40024928       5.01570786
H        -1.85142505      -0.80539783       3.56895048
H        -0.13641633      -0.86109839       3.22151914
H        -1.35017449      -0.68767463       1.16699357
H        -0.56031810      -2.25520825       1.19893484
H        -2.79010296      -3.26867385       1.95992581
H        -3.51803084      -1.68023315       1.75038524
H        -3.93296404      -3.14065874      -0.17255846
H        -2.22529750      -3.42810979      -0.40226345
H        -3.46196676      -0.62403577      -0.61465305
H        -1.82765611      -1.10390290      -1.06925423
H        -4.81209078      -0.30673100      -2.34368910
H        -4.72048189      -1.20327458      -3.84323866
H        -5.47538801      -3.29680814      -2.57573883
H        -5.77956416      -2.27964512      -1.18314819
H        -7.09492977      -2.04804611      -3.93455579
H        -7.83080512      -2.72373001      -2.49736492
H        -7.05659914       0.19742121      -2.97242351
H        -8.67021159      -0.46521322      -2.94801456
H        -6.75976826      -0.19613812      -0.57390745
H        -8.19352703       0.75718753      -0.88714792
H        -8.14624430      -2.22500915      -0.18579023
H        -8.55398681      -0.89799968       0.88675505
H       -10.50689206      -0.30754951      -0.59693569
H       -10.13651771      -1.70389264      -1.61193274
H       -10.46351792      -3.22592765       0.34001173
H       -10.85023564      -1.82666429       1.36118811
H       -11.90866994      -2.25588894       0.00672761
H        -3.87238290      -3.32863517      -4.54761407
H        -3.14438523      -1.83961933      -5.18748430
H        -1.24886634      -2.67660952      -7.05323938
H        -0.82407509      -1.88027355      -5.51685116
H         0.06098150      -3.65422392      -3.89101566
H         2.55130946      -4.71196414      -5.17684245
H         2.38908819      -4.19050541      -3.49950175
H         2.43945999      -6.72123357      -3.81833400
H         0.96105854      -6.59951052      -4.76740814
H         0.33724919      -7.30212387      -2.58399328
H        -0.24187111      -5.66250272      -2.76047238
H         1.55372109      -6.82830363      -0.79390212
H         2.46120935      -5.57011260      -1.61005084
H         1.21171327      -4.82852443       0.46471676
H        -0.32020315      -5.15748221      -0.35765104
H        -0.07306044      -3.22765522      -1.61940980
H         2.61540003      -0.90759323      -1.85011481
H         1.12021373      -1.47812272      -2.58092057
H         2.07677300      -0.69797349       0.79876324
H         0.80032120       0.51780619       0.93092885
H         3.88045383       3.41775720      -0.19558732
H         4.27426716       3.56032669       1.51087417
H         5.50396928       1.48355344      -0.39009561
H         5.97804309       1.73317072       1.28024767
H         7.53998476       2.74823307      -0.37456185
H         6.25603630       3.79083313      -0.97712094
H         7.30119872       3.80403278       1.90684745
H         6.09647484       4.91260468       1.24530812
H         8.98664882       4.66842560       0.26754445
H         7.76812890       5.75458447      -0.40603384
H         8.69427377       5.77672765       2.51534748
H         7.55969071       6.91357915       1.79457603
H         9.86781416       7.82332747       2.05595360
H        10.50111747       6.57681966       0.98661395
H         9.19269846       7.50852444      -0.91334018
H        10.17079081       8.77238894      -0.16219666
H         8.43290716       8.69193841       0.17111867
H         2.59927670       0.45091588       2.49599371
H         4.13481762       1.23986241       2.78426391
H         2.95447561       3.39279790       3.25157062
H         2.46356109       2.09718990       4.33075112
H         0.42314627       1.69419778       2.96481800
H         0.87007599       2.99217938       1.86964891
H         0.22857049       3.24635690       4.85118887
H        -0.83945785       3.67262399       3.53144283
H         0.15198029       5.67151641       4.52046940
H         1.77078156       5.05545506       4.31748167
H         1.28784408       6.76980737       2.65407370
H         1.62966017       5.24021977       1.87555849
H        -0.80111032       4.87452485       1.45307886
H        -0.19834324       6.36205889       0.74390370
H        -1.83489413       6.15925863       3.32308771
H        -2.36608811       6.79249999       1.76215489
H        -1.13321306       7.66259175       2.68977533
