113
lig_044 free ligand  charge=0 uhf=0  ETKDGv3 + MMFF94s  smiles=CCCCCCCCCCN(CCCCCCCCCC)C(=O)COCC(=O)N(CCCCCC)CCCCCC
C        -2.21516173      -6.88631022      -3.39389206
C        -1.25384769      -5.79379646      -3.83552475
C        -1.58429203      -4.41555928      -3.25669691
C        -2.89961920      -3.83486125      -3.78511455
C        -3.23589714      -2.46117051      -3.19225371
C        -2.26004240      -1.36317737      -3.62088923
C        -2.66784562       0.03551276      -3.14672760
C        -2.81145465       0.22006462      -1.63071582
C        -1.56806268      -0.20203343      -0.84459312
C        -1.67417714       0.06429606       0.66207206
N        -1.47251879       1.47112576       1.02216715
C        -2.66328971       2.27652180       1.29508377
C        -3.05750963       2.20935328       2.77327224
C        -4.37053192       2.93182617       3.08452034
C        -4.29411103       4.44588103       2.87608426
C        -5.59254921       5.13118180       3.31082087
C        -5.51619878       6.64507355       3.10208925
C        -6.82695805       7.37023823       3.42108994
C        -7.33210236       7.22918074       4.86077971
C        -6.35435436       7.67158558       5.95176418
C        -5.95535248       9.13553394       5.85116416
C        -0.22281683       2.05592193       1.22994808
O        -0.10431344       3.24123488       1.55897194
C         1.03565223       1.20114479       1.01820086
O         1.22514623       0.24577513       2.05557978
C         2.35026004      -0.59135789       1.82356036
C         2.17268377      -1.68977046       0.75246950
O         1.08029682      -1.87699664       0.21025150
N         3.29190315      -2.45377226       0.41593095
C         3.12352951      -3.49463077      -0.60421984
C         3.15718960      -2.93927723      -2.03112720
C         2.75825388      -3.97214451      -3.08607592
C         3.64360124      -5.21858484      -3.19216198
C         5.07079155      -4.95231166      -3.68046304
C         6.08325733      -4.80330067      -2.55506303
C         4.62725069      -2.26586578       0.99168501
C         5.49654032      -1.32089644       0.16049833
C         6.84294859      -1.06618497       0.84081549
C         7.72693791      -0.07075047       0.08403768
C         8.19729348      -0.58826701      -1.27621769
C         9.16578928       0.38301824      -1.93389637
H        -1.86772928      -7.85975265      -3.75489045
H        -3.21954964      -6.72500764      -3.79563598
H        -2.28135776      -6.93426039      -2.30240968
H        -0.24314810      -6.07137638      -3.51273548
H        -1.23380651      -5.74439425      -4.93038771
H        -0.75791395      -3.74383206      -3.51356284
H        -1.61696695      -4.47426974      -2.16205993
H        -3.72478530      -4.51252982      -3.53898259
H        -2.86171625      -3.76481781      -4.87883771
H        -3.26536214      -2.54210274      -2.09993997
H        -4.24663795      -2.18480639      -3.51697328
H        -1.24984072      -1.58502506      -3.26181045
H        -2.19907986      -1.34669307      -4.71631583
H        -3.61803154       0.31134071      -3.62083842
H        -1.92245798       0.75099976      -3.51669005
H        -3.02052446       1.28007215      -1.45066882
H        -3.68345545      -0.33703733      -1.26902288
H        -0.69083810       0.29717739      -1.26788400
H        -1.41895942      -1.27993079      -0.97369912
H        -2.64682846      -0.26809384       1.04358027
H        -0.92667506      -0.53606841       1.18366947
H        -3.48625727       1.92238519       0.66630121
H        -2.45902701       3.31296657       1.00652452
H        -3.16547565       1.15854994       3.07021278
H        -2.25288444       2.62087329       3.39494091
H        -5.17576873       2.51284964       2.46887494
H        -4.63334567       2.72686715       4.12979422
H        -4.10714065       4.67047973       1.82012192
H        -3.45389931       4.85452717       3.45032272
H        -5.77944980       4.90683094       4.36691245
H        -6.43293378       4.72259180       2.73683138
H        -5.26363982       6.84902106       2.05381836
H        -4.69888283       7.06267236       3.70100132
H        -7.60869254       7.00020770       2.74554599
H        -6.70420867       8.43347078       3.18251488
H        -7.61575974       6.18651976       5.04666214
H        -8.25686277       7.81219961       4.95775641
H        -6.82952827       7.50714577       6.92652037
H        -5.45594481       7.04507607       5.93760683
H        -6.83735802       9.78368731       5.84660907
H        -5.33421383       9.41516420       6.70818182
H        -5.37612641       9.33224098       4.94428135
H         0.98934954       0.72209398       0.03811076
H         1.89448859       1.88365398       1.00650985
H         2.55038483      -1.10385614       2.77064973
H         3.22026669       0.02905547       1.58573825
H         3.89345483      -4.25867220      -0.45829865
H         2.15774517      -3.98552989      -0.43147797
H         4.14218343      -2.52697830      -2.26526220
H         2.46070764      -2.09500146      -2.10976107
H         1.73162181      -4.29989577      -2.88001611
H         2.72616601      -3.47567452      -4.06412255
H         3.16396603      -5.87895454      -3.92704804
H         3.64822701      -5.77636276      -2.24926034
H         5.10253450      -4.07240885      -4.33271678
H         5.38743333      -5.80619946      -4.29251941
H         6.08380364      -5.68688193      -1.90878604
H         7.09019969      -4.69061051      -2.96990046
H         5.88184432      -3.92736809      -1.93648070
H         5.10732653      -3.24689164       1.08560847
H         4.52990333      -1.87490287       2.00870563
H         5.66091177      -1.75757755      -0.82785702
H         4.97481866      -0.36976766       0.00293288
H         7.38066968      -2.01398837       0.96554080
H         6.66511152      -0.66862498       1.84777724
H         8.60391657       0.14792954       0.70604938
H         7.18822286       0.87588460      -0.04518883
H         8.68946823      -1.56021316      -1.15591592
H         7.34283333      -0.73548622      -1.94517003
H         8.69484885       1.35820116      -2.09385063
H        10.05700508       0.52849460      -1.31511236
H         9.48733267      -0.00283527      -2.90636483
