146
lig_083 free ligand  charge=0 uhf=0  ETKDGv3 + MMFF94s  smiles=CCCCCCCCN(CCCCCCCC)C(=O)COCC(=O)NCCCCCCNC(=O)COCC(=O)N(CCCCCCCC)CCCCCCCC
C        -8.96913093      -4.61417643      -0.14194618
C        -8.63199467      -5.01640995       1.28556354
C        -9.71520520      -4.64472838       2.29759574
C       -10.03652824      -3.15290145       2.44575145
C        -8.90201564      -2.30252290       3.02926228
C        -8.03086328      -1.63857471       1.96030638
C        -6.95021140      -0.75501780       2.58884972
C        -6.09964072      -0.01863383       1.54754478
N        -5.28687897      -0.91920161       0.72636013
C        -5.73818647      -1.16872614      -0.64700346
C        -5.25527721      -0.07301542      -1.60107871
C        -5.56393696      -0.37156179      -3.07031047
C        -7.06323282      -0.43128032      -3.37503885
C        -7.31462766      -0.61156244      -4.87439291
C        -8.79299393      -0.80457110      -5.22435013
C        -9.65285508       0.42556561      -4.93177476
C       -11.08583015       0.22427903      -5.40092368
C        -4.09945031      -1.41292295       1.26664914
O        -3.71611992      -1.08019498       2.39287570
C        -3.25283602      -2.36313359       0.38456396
O        -2.03046353      -2.88019646       0.88453231
C        -1.09428253      -1.90897594       1.32207447
C        -0.96219758      -0.58736356       0.54166890
O        -0.37733516      -0.50618914      -0.53432770
N        -1.60526449       0.47643914       1.13824708
C        -1.62258990       1.80046156       0.56224479
C        -0.37282360       2.62147261       0.88255507
C        -0.31010441       3.14227879       2.32347439
C         0.00348903       2.11208160       3.41111563
C         1.31365227       1.32853101       3.26230348
C         2.57809733       2.17139872       3.43004203
N         2.93704167       2.88334764       2.22471964
C         3.22207424       4.23205224       2.19859487
O         3.20977017       4.94973222       3.19476519
C         3.60270219       4.75976803       0.80109190
O         4.95151418       5.09859294       0.52656690
C         5.92702959       4.24364895       1.09912999
C         5.87096183       2.71809436       0.84334212
O         4.88095473       2.20397662       0.31209288
N         6.94975086       1.94206649       1.27341994
C         8.14324044       2.46289613       1.94789091
C         9.43377017       2.39479504       1.11960545
C         9.60262622       3.53612282       0.10834130
C         8.86734838       3.33413484      -1.22075559
C         9.78542217       2.94215282      -2.38473509
C        10.44664243       1.57401820      -2.21532241
C        11.30501604       1.21933704      -3.43022936
C        11.96069085      -0.14298866      -3.26921633
C         6.82159675       0.48415828       1.16185651
C         6.99432484      -0.03813045      -0.26767651
C         6.73358060      -1.54399268      -0.38650776
C         5.31811575      -1.91936483      -0.84567137
C         4.21396734      -1.50654107       0.12654944
C         2.81214238      -1.93862759      -0.31292574
C         2.57765504      -3.44610899      -0.42526728
C         2.81687849      -4.19745002       0.87468668
H        -8.19341266      -4.97334851      -0.82588841
H        -9.03287910      -3.52847659      -0.25457444
H        -9.92352012      -5.04889505      -0.45562848
H        -8.49943646      -6.10516274       1.31212509
H        -7.66870783      -4.58863051       1.58000099
H        -9.42492039      -5.04284853       3.27809614
H       -10.64103328      -5.16603376       2.02206403
H       -10.39335767      -2.73423782       1.49832174
H       -10.88498493      -3.08513366       3.13981876
H        -8.28424020      -2.90085633       3.70916512
H        -9.35410644      -1.50759479       3.63648626
H        -8.66101473      -1.03021974       1.30037604
H        -7.55514532      -2.40211981       1.34145274
H        -6.30923034      -1.36783309       3.23365783
H        -7.42793250      -0.00674929       3.23306187
H        -5.42517943       0.66983674       2.07100367
H        -6.73463404       0.59431193       0.89779919
H        -5.37571647      -2.14226078      -0.98686311
H        -6.83134187      -1.22390628      -0.64114753
H        -4.17065313       0.05296569      -1.49532292
H        -5.70075348       0.88904909      -1.31994213
H        -5.08928337      -1.31719988      -3.35933054
H        -5.10342713       0.41315430      -3.68329428
H        -7.52321381      -1.26459363      -2.83241679
H        -7.53721626       0.49156064      -3.02307252
H        -6.91662131       0.25052959      -5.42336585
H        -6.76287032      -1.49215600      -5.22637500
H        -8.86230511      -1.04398493      -6.29285106
H        -9.18921096      -1.67125646      -4.68121140
H        -9.23060365       1.30382463      -5.43345548
H        -9.66357828       0.63641424      -3.85718114
H       -11.54686051      -0.63109982      -4.89679634
H       -11.68528970       1.11287939      -5.17956742
H       -11.12463424       0.04922659      -6.48082342
H        -3.05248410      -1.87591520      -0.57535763
H        -3.87796449      -3.23874618       0.17779757
H        -0.10759004      -2.38499339       1.30294812
H        -1.28489330      -1.69351370       2.37953668
H        -2.16729016       0.29699675       1.96999950
H        -1.71775868       1.69770641      -0.52482214
H        -2.52379228       2.30539196       0.92577425
H        -0.38642564       3.50036767       0.22487041
H         0.53399984       2.06431300       0.62636210
H         0.43260012       3.94520807       2.37060143
H        -1.26694272       3.62088523       2.56882888
H         0.01668940       2.63252799       4.37765214
H        -0.82261058       1.39653975       3.48082997
H         1.33594043       0.78017606       2.31437284
H         1.31988525       0.56841605       4.05440442
H         2.48189753       2.85963199       4.27599983
H         3.42328388       1.50716036       3.64317060
H         3.16253243       2.33782370       1.39128967
H         3.25633790       4.06075985       0.03144553
H         3.00864981       5.66811500       0.64442470
H         6.88373608       4.60505505       0.71351262
H         5.93387237       4.40506986       2.18330605
H         7.98320683       3.48615072       2.29554794
H         8.27345265       1.86414393       2.85820431
H         9.54613968       1.42081498       0.63473441
H        10.26644277       2.47972974       1.83043996
H         9.26163955       4.47112294       0.56924089
H        10.67346142       3.67954761      -0.08261447
H         8.39185872       4.28540031      -1.49208641
H         8.05927932       2.60421747      -1.12999815
H        10.55628415       3.71174464      -2.51533656
H         9.18812157       2.93950179      -3.30515910
H        11.07488166       1.56683923      -1.31775004
H         9.67515546       0.80812222      -2.08108869
H        10.68674890       1.21559627      -4.33545035
H        12.08288148       1.97877787      -3.57113543
H        12.56888291      -0.37724316      -4.14848178
H        12.61252181      -0.16320945      -2.38998582
H        11.20786183      -0.92982330      -3.15726321
H         5.83823890       0.21380993       1.55816302
H         7.55984635       0.00918242       1.81885578
H         6.36966173       0.51374427      -0.97832967
H         8.03007886       0.14962853      -0.56867577
H         7.42799611      -1.94547141      -1.13609715
H         6.97075007      -2.05438278       0.55456461
H         5.12489414      -1.47332375      -1.82898487
H         5.29836196      -3.00606261      -0.98525099
H         4.19593338      -0.41500262       0.20662889
H         4.43086625      -1.89298373       1.12849451
H         2.58300137      -1.47678793      -1.28130753
H         2.09311876      -1.52405214       0.40372629
H         1.53782528      -3.60872842      -0.73447540
H         3.20344997      -3.87328709      -1.21607838
H         2.22410227      -3.77156884       1.69030530
H         3.87196875      -4.17307236       1.16271851
H         2.52954796      -5.24754396       0.75975695
