29
lig_169 free ligand  charge=0 uhf=0  ETKDGv3 + MMFF94s  smiles=O=C(c1ccccc1)c1ccc2ccccc2n1
O        -1.53225862      -2.85467101       0.01638953
C        -1.24574059      -1.65921156       0.09527651
C        -2.35249010      -0.66616852       0.13540737
C        -3.53734183      -0.97270194      -0.54857607
C        -4.61712086      -0.08812232      -0.52122797
C        -4.52404798       1.10145480       0.19920071
C        -3.35596213       1.40434696       0.89814014
C        -2.27363319       0.52073051       0.87316654
C         0.18860435      -1.25238385       0.13585615
C         1.15471817      -2.21932085       0.37933446
C         2.48947592      -1.83053338       0.38855152
C         2.82361501      -0.49291480       0.14708055
C         4.15905407      -0.05434096       0.14522956
C         4.45953111       1.28362269      -0.10134701
C         3.43018883       2.18525473      -0.34702723
C         2.10308264       1.74524461      -0.34438062
C         1.77466366       0.41868278      -0.10065325
N         0.48283143       0.04882604      -0.10720791
H        -3.62110679      -1.90382313      -1.10559380
H        -5.53035209      -0.33057103      -1.05856434
H        -5.36507361       1.78997473       0.22178893
H        -3.28803719       2.32769967       1.46794641
H        -1.38240970       0.77066414       1.44212230
H         0.87725636      -3.25404926       0.55532883
H         3.26016938      -2.57322016       0.57885351
H         4.97081797      -0.75314755       0.33463646
H         5.49322338       1.62029359      -0.10323793
H         3.65373335       3.23098832      -0.54261878
H         1.30460904       2.45739674      -0.53995359
