42
lig_001 free ligand  charge=0 uhf=0  ETKDGv3 + MMFF94s  smiles=C1COCCOCCOCCOCCOCCO1
C         2.62226000       1.78050705      -0.64579425
C         2.60905923       2.56027437       0.67388704
O         1.30415633       2.79675156       1.20593132
C         0.51333158       3.75032124       0.48849479
C        -0.52990619       3.07392204      -0.40458941
O        -1.48317327       2.37353417       0.40037660
C        -2.23976456       1.44594319      -0.37754953
C        -3.10470451       0.60191813       0.55620874
O        -3.87731115      -0.40328449      -0.10070851
C        -3.14141376      -1.38473360      -0.83484832
C        -2.06448770      -2.11001989      -0.02793303
O        -1.50638292      -3.16462649      -0.80992479
C        -0.40120094      -3.79812099      -0.15921829
C         0.87673842      -3.62568854      -0.98666934
O         1.36445147      -2.28222745      -1.05674745
C         1.85189383      -1.77041748       0.18580054
C         2.71381438      -0.52990454      -0.06289045
O         1.90674342       0.54699828      -0.54622800
H         3.65147327       1.60290849      -0.97944948
H         2.13446186       2.36949993      -1.42747900
H         3.13999166       3.51274093       0.56382133
H         3.14221371       1.98485353       1.43717842
H         1.14843346       4.42366499      -0.09782913
H        -0.00328025       4.34980496       1.24570047
H        -1.06477775       3.83135781      -0.98760330
H        -0.04705160       2.37749059      -1.09377670
H        -1.55710683       0.80334544      -0.94291852
H        -2.86885788       1.98410958      -1.09564144
H        -3.81128703       1.26190136       1.07315059
H        -2.50119908       0.15258863       1.35319323
H        -3.86896440      -2.11965160      -1.19880796
H        -2.71410841      -0.93406470      -1.73778330
H        -1.27325254      -1.40806338       0.25239414
H        -2.49788721      -2.52072731       0.89137811
H        -0.64054869      -4.86521779      -0.10127125
H        -0.27014541      -3.43359063       0.86552192
H         1.67143546      -4.27390143      -0.60038306
H         0.67648073      -3.92974398      -2.01975215
H         2.46067654      -2.53170881       0.68599080
H         1.00172762      -1.50661116       0.82128204
H         3.19721607      -0.23918748       0.87525861
H         3.48025305      -0.75294453      -0.81351526
