114
lig_071 free ligand  charge=0 uhf=0  ETKDGv3 + MMFF94s  smiles=CCCCCCCCN(CCCCCCCC)C(=O)CNCC(=O)N(CCCCCCCC)CCCCCCCC
C         7.55233146       2.02523893      -6.22298397
C         6.08463107       2.40584870      -6.33669159
C         5.14304988       1.43984387      -5.61353200
C         5.38001176       1.27447044      -4.10820101
C         5.21106369       2.57560571      -3.31982772
C         5.44213189       2.40817828      -1.81433204
C         4.37866430       1.55139252      -1.12521583
C         4.59138711       1.51976423       0.39168262
N         3.57648112       0.69672914       1.06007947
C         3.90490080      -0.71880195       1.27698608
C         4.89544018      -0.94457581       2.42743340
C         4.30644838      -0.75758711       3.82878384
C         3.28560362      -1.81741373       4.26056905
C         3.77885383      -3.26797234       4.25609250
C         4.98705754      -3.50680883       5.16349511
C         5.35743599      -4.98976055       5.21274601
C         6.56082018      -5.23386749       6.10935697
C         2.36747164       1.31319435       1.37441890
O         2.18898964       2.52228346       1.18804409
C         1.23922149       0.46091821       1.97982291
N        -0.06167224       1.16192782       1.91398010
C        -0.65320003       1.04952017       0.56716494
C        -1.98811134       1.80036761       0.46700648
O        -2.11311317       2.66208990      -0.41244671
N        -3.04684853       1.48014284       1.31786279
C        -3.03337838       0.46246371       2.37865491
C        -2.84439038      -0.99731711       1.94733778
C        -3.82919522      -1.45977095       0.87411120
C        -3.67989081      -2.94063024       0.50768633
C        -2.34673743      -3.26356870      -0.17568211
C        -2.27585700      -4.70623901      -0.69020670
C        -2.59618341      -4.86633001      -2.17938825
C        -4.01883328      -4.49435772      -2.55963224
C        -4.23838987       2.33355198       1.23956703
C        -5.32321343       1.73922360       0.34274735
C        -6.50036591       2.70287380       0.17869014
C        -7.58763024       2.10007880      -0.71323267
C        -8.83632955       2.97919634      -0.82914075
C        -8.61487801       4.37453059      -1.42227183
C        -7.96944252       4.40946112      -2.80941938
C        -8.78148134       3.68915066      -3.87440963
H         8.16171265       2.68972554      -6.84397705
H         7.91082071       2.11442796      -5.19328762
H         7.71951611       0.99783897      -6.56136427
H         5.81054856       2.42125139      -7.39866039
H         5.94134429       3.42746845      -5.96860536
H         5.22306058       0.45193640      -6.08448391
H         4.11081637       1.77438800      -5.77594956
H         4.66288315       0.52960959      -3.74496963
H         6.37681982       0.85631381      -3.92800044
H         4.21062818       2.98914124      -3.49500559
H         5.93003899       3.31875626      -3.68260177
H         6.43586948       1.97803349      -1.63992744
H         5.44565327       3.40605015      -1.35812764
H         4.40773385       0.52741568      -1.51333664
H         3.38127641       1.94686078      -1.35249789
H         5.58721833       1.12967281       0.62517544
H         4.54873088       2.53996759       0.79092326
H         4.35203265      -1.08720306       0.34589124
H         3.00761687      -1.31605988       1.43645961
H         5.31384651      -1.95300902       2.33711103
H         5.74635470      -0.26151896       2.32564158
H         5.13126680      -0.74556215       4.55135596
H         3.84011154       0.23212220       3.89960461
H         2.39923919      -1.75980500       3.62059018
H         2.94293278      -1.56713567       5.27265490
H         4.01264858      -3.58273201       3.23270369
H         2.95036136      -3.90609024       4.58915047
H         4.76295705      -3.15038691       6.17611188
H         5.84871257      -2.93566328       4.80010971
H         4.50797387      -5.57419328       5.58494428
H         5.58239093      -5.35086130       4.20242208
H         6.80768604      -6.29994001       6.13048585
H         6.35712657      -4.91182864       7.13557540
H         7.43799086      -4.68920611       5.74568625
H         1.15440376      -0.51216540       1.49188064
H         1.48168031       0.30597636       3.03448650
H         0.13212259       2.15913728       2.07181671
H        -0.81257539       0.01132806       0.26661169
H         0.02226060       1.49406220      -0.17417322
H        -3.98557291       0.52323958       2.92054771
H        -2.26225109       0.73712086       3.10454613
H        -1.81909866      -1.16650153       1.61815336
H        -2.96979548      -1.62736150       2.83756403
H        -4.85037848      -1.30563906       1.24154679
H        -3.71515349      -0.85445118      -0.03219511
H        -3.78737502      -3.55468458       1.41030944
H        -4.51259546      -3.20878213      -0.15028694
H        -2.14777565      -2.55529238      -0.98835248
H        -1.54261713      -3.13331649       0.55834466
H        -2.91799175      -5.36445815      -0.09296101
H        -1.24867804      -5.06520061      -0.54469938
H        -2.42534220      -5.91376315      -2.45626638
H        -1.89560994      -4.26814481      -2.77407662
H        -4.74587774      -5.03590420      -1.94662606
H        -4.19325124      -3.42040208      -2.44697017
H        -4.20524713      -4.74826099      -3.60821885
H        -3.95610639       3.32264455       0.85964522
H        -4.62080923       2.50075015       2.25363441
H        -5.68320602       0.79976037       0.77474618
H        -4.90266262       1.49917739      -0.64141060
H        -6.13675684       3.64133169      -0.25448243
H        -6.92112955       2.93932813       1.16339929
H        -7.17940542       1.89193702      -1.70879518
H        -7.89353679       1.13120738      -0.29850389
H        -9.58418112       2.44541986      -1.42768305
H        -9.27933788       3.09671639       0.16801247
H        -9.58592004       4.88358393      -1.47161821
H        -8.00087423       4.96893520      -0.73536417
H        -7.85571403       5.45830837      -3.10936418
H        -6.95881373       3.98862295      -2.77209447
H        -8.83099087       2.61340686      -3.68216352
H        -8.31992866       3.82918409      -4.85718493
H        -9.80268105       4.08031951      -3.92126212
