57
lig_157 free ligand  charge=0 uhf=0  ETKDGv3 + MMFF94s  smiles=COCCN(CCOC)C(=O)COCC(=O)N(CCOC)CCOC
C        -2.96532580      -2.76475641       0.76105795
O        -3.56378824      -2.42996414      -0.48466819
C        -4.57411478      -1.42617669      -0.35801292
C        -4.10762448      -0.10694717      -0.98876954
N        -3.01389786       0.53003810      -0.24000896
C        -3.38002188       1.30949410       0.95042183
C        -3.54269006       2.80297152       0.64539055
O        -4.75641065       3.01092025      -0.08603682
C        -4.92302425       4.37887342      -0.43678926
C        -1.66971466       0.47724530      -0.59892416
O        -0.80814272       1.04721332       0.07939715
C        -1.28838640      -0.30947934      -1.87267310
O         0.10346908      -0.41136756      -2.14723937
C         0.75888525      -1.32240147      -1.27428994
C         2.26591812      -1.43032383      -1.54238193
O         2.71398640      -2.44296833      -2.08969440
N         3.08585968      -0.38502902      -1.11561477
C         4.53800091      -0.59905910      -1.11775549
C         5.08088724      -1.24406982       0.17131308
O         4.50439054      -2.51730672       0.47388092
C         5.09034811      -3.58055391      -0.26561572
C         2.58278357       0.92753189      -0.67275258
C         2.45240631       1.07620745       0.84510098
O         3.70684197       1.49732159       1.39528373
C         3.63634465       1.61449565       2.81066576
H        -2.51259776      -1.88480841       1.22644004
H        -2.18088527      -3.50363680       0.57684018
H        -3.70892039      -3.20555158       1.43194109
H        -5.44653802      -1.78668628      -0.91346254
H        -4.88316923      -1.29118623       0.68503191
H        -4.94557493       0.59595231      -1.03375522
H        -3.79065946      -0.29386816      -2.01762457
H        -2.59271398       1.18557735       1.70258410
H        -4.30577797       0.89939666       1.36790304
H        -3.60591450       3.35722142       1.58866030
H        -2.69163067       3.17916223       0.06647205
H        -5.86532384       4.48184101      -0.98145040
H        -4.96798665       5.00213868       0.46145500
H        -4.10651786       4.70966358      -1.08581564
H        -1.72710915       0.22858277      -2.71981997
H        -1.72440341      -1.31148410      -1.84747993
H         0.61425555      -1.04456933      -0.22573235
H         0.33012632      -2.32278657      -1.41188505
H         4.79076381      -1.23452258      -1.97306609
H         5.03459118       0.36324412      -1.28445161
H         4.86764470      -0.60518954       1.02904163
H         6.17243401      -1.33461118       0.11448654
H         5.02605441      -3.41026283      -1.34269866
H         6.13729601      -3.70755094       0.02643397
H         4.55136065      -4.50119646      -0.02623551
H         3.25037069       1.69565136      -1.08034942
H         1.60611320       1.09999612      -1.12442554
H         2.13480700       0.13598516       1.30926338
H         1.71274469       1.85409440       1.06545745
H         3.40110849       0.64647600       3.26343984
H         4.61251868       1.94289976       3.17726174
H         2.88655364       2.35811898       3.09727426
