55
lig_109 free ligand  charge=0 uhf=0  ETKDGv3 + MMFF94s  smiles=CCCCCCN(C)C(=O)CC(=O)N(C)CCCCCC
C        -5.94492300      -3.49622525       0.36808489
C        -4.65585496      -3.10080083      -0.33448908
C        -3.83759569      -2.11987146       0.50628968
C        -2.54388146      -1.72384587      -0.20821455
C        -1.63473787      -0.82839849       0.63667907
C        -2.23990321       0.54617918       0.93300268
N        -1.28007414       1.42086311       1.61152436
C        -1.21891115       1.31448056       3.06400249
C        -0.45348067       2.22660608       0.82630927
O        -0.53899009       2.22688939      -0.40202458
C         0.57332478       3.06529336       1.54844399
C         1.44105049       3.92625478       0.65956802
O         1.21710780       5.13942068       0.59725626
N         2.52254606       3.34280956       0.00416715
C         3.41069044       4.21223887      -0.75458722
C         2.75123385       1.89893279      -0.12159219
C         2.49949062       1.38748054      -1.54393544
C         2.38062981      -0.13704040      -1.62507488
C         3.65393899      -0.86734751      -1.19267018
C         3.59100304      -2.37786716      -1.43355473
C         2.53426520      -3.08179975      -0.59561510
H        -5.73618921      -3.98045812       1.32739609
H        -6.51360469      -4.19793969      -0.25005999
H        -6.57463927      -2.62046244       0.55471802
H        -4.06547737      -4.00232378      -0.53550836
H        -4.89818229      -2.64855832      -1.30324391
H        -4.44330670      -1.22928896       0.70793379
H        -3.59837483      -2.57680545       1.47412891
H        -1.98444705      -2.63155507      -0.46680575
H        -2.78107569      -1.21989533      -1.15307204
H        -0.68767065      -0.69738102       0.09908532
H        -1.38524435      -1.33778817       1.57528946
H        -2.55888179       1.01595474      -0.00451398
H        -3.12933434       0.46036428       1.56633562
H        -0.54208647       2.03878953       3.51678665
H        -2.22093240       1.47891582       3.47137716
H        -0.88066576       0.30852433       3.32787714
H         0.03665393       3.74620174       2.22116820
H         1.21367544       2.43302391       2.17151984
H         3.13041469       4.16894258      -1.81092502
H         3.34655215       5.25095154      -0.41916407
H         4.44277429       3.87106195      -0.63177614
H         3.79005789       1.70967928       0.17261779
H         2.12177845       1.34704774       0.57834901
H         3.30360233       1.72743725      -2.20793777
H         1.57384546       1.82481836      -1.93629392
H         1.53431858      -0.45923497      -1.00866399
H         2.14098049      -0.40929827      -2.66021855
H         3.85386798      -0.68211940      -0.13098626
H         4.50690510      -0.46441598      -1.75235478
H         4.57036715      -2.80869529      -1.19339474
H         3.40825113      -2.57952542      -2.49542814
H         1.52406599      -2.77508820      -0.88239768
H         2.60348910      -4.16515539      -0.73725575
H         2.67158384      -2.86997597       0.46943474
