68
lig_016 free ligand  charge=0 uhf=0  ETKDGv3 + MMFF94s  smiles=CC1(C)SC(C)(C)c2nc(-c3cccc(-c4cccc(-c5nnc6c(n5)C(C)(C)SC6(C)C)n4)n3)nnc21
C        -8.01862011       1.38493075       3.07790726
C        -7.92743668       1.21886453       1.55989555
C        -8.29889348       2.51464426       0.83653105
S        -9.10176810      -0.10915793       1.03736247
C        -7.79944747      -1.20595245       0.31816197
C        -8.09302562      -1.40437658      -1.17028337
C        -7.81254609      -2.53935608       1.06839526
C        -6.48401167      -0.48551763       0.51842868
N        -5.31580277      -1.02133381       0.10176394
C        -4.21405637      -0.26897368       0.34466118
C        -2.89673434      -0.79293069      -0.08443358
C        -2.76642377      -2.02626358      -0.72446639
C        -1.50481586      -2.46946059      -1.10574746
C        -0.39604347      -1.67376547      -0.84135699
C        -0.56910328      -0.44854072      -0.20010002
C         0.56893244       0.44937064       0.11241680
C         0.39586487       1.67468871       0.75349583
C         1.50465770       2.47032968       1.01796381
C         2.76630367       2.02695512       0.63700469
C         2.89662560       0.79351633      -0.00282646
C         4.21399536       0.26928912      -0.43143371
N         4.25621086      -0.94138149      -1.04832035
N         5.45043496      -1.45994051      -1.45859283
C         6.56140043      -0.74115758      -1.23342253
C         6.48407342       0.48528753      -0.60423949
N         5.31579461       1.02148639      -0.18826959
C         7.79956220       1.20554902      -0.40371238
C         7.81361617       2.53802515      -1.15559559
C         8.09202955       1.40575034       1.08470789
S         9.10214676       0.10751953      -1.12055406
C         7.92758036      -1.21966738      -1.64466416
C         8.29796651      -2.51604041      -0.92182597
C         8.01970899      -1.38486430      -3.16271417
N         1.80524599       0.01733250      -0.25968657
N        -1.80538833      -0.01664889       0.17226719
N        -4.25627058       0.94155381       0.96182679
N        -5.45043362       1.45977442       1.37270886
C        -6.56132912       0.74075790       1.14793908
H        -7.32826067       2.16124523       3.42972037
H        -7.75461897       0.46155383       3.60811251
H        -9.02609894       1.68173850       3.39225950
H        -7.61766271       3.32811950       1.11439925
H        -8.23765879       2.40788083      -0.25355835
H        -9.31395218       2.84232233       1.08992254
H        -8.08443692      -0.45494434      -1.71971582
H        -9.06703700      -1.88151219      -1.33010116
H        -7.33736244      -2.04794791      -1.63701430
H        -8.77877582      -3.04820562       0.97155144
H        -7.04804123      -3.21949044       0.67342975
H        -7.60099618      -2.41029958       2.13701676
H        -3.63750530      -2.64267340      -0.92774516
H        -1.38389799      -3.42675541      -1.60498361
H         0.59539178      -2.00959502      -1.13466827
H        -0.59559512       2.01063505       1.04660731
H         1.38372860       3.42769660       1.51705703
H         3.63740963       2.64328417       0.84041796
H         7.04893966       3.21883091      -0.76211507
H         7.60293191       2.40770429      -2.22423872
H         8.77988326       3.04676007      -1.05855706
H         7.33623650       2.05019246       1.55002581
H         8.08265667       0.45701868       1.63532943
H         9.06608577       1.88273771       1.24468988
H         7.61662214      -3.32907189      -1.20071930
H         9.31308362      -2.84396815      -1.17464082
H         8.23593793      -2.40991713       0.16827571
H         7.32921483      -2.16062649      -3.51546275
H         9.02725439      -1.68196971      -3.47655866
H         7.75652384      -0.46103889      -3.69253938
